# vtk DataFile Version 1.0
Unstructured Grid Example
ASCII

DATASET UNSTRUCTURED_GRID
POINTS	648float
	-7.341772e+01	5.232068e+01	0.000000e+00
	-7.341772e+01	4.952532e+01	0.000000e+00
	-7.038005e+01	4.950459e+01	0.000000e+00
	-7.035386e+01	5.227636e+01	0.000000e+00
	-7.341772e+01	4.672996e+01	0.000000e+00
	-7.039665e+01	4.672223e+01	0.000000e+00
	-7.341772e+01	4.393460e+01	0.000000e+00
	-7.041195e+01	4.393406e+01	0.000000e+00
	-7.341772e+01	4.113924e+01	0.000000e+00
	-7.042611e+01	4.114191e+01	0.000000e+00
	-7.341772e+01	3.834388e+01	0.000000e+00
	-7.043949e+01	3.834582e+01	0.000000e+00
	-7.341772e+01	3.554852e+01	0.000000e+00
	-7.045288e+01	3.554408e+01	0.000000e+00
	-7.341772e+01	3.275316e+01	0.000000e+00
	-7.046717e+01	3.273486e+01	0.000000e+00
	-7.341772e+01	2.995781e+01	0.000000e+00
	-7.049121e+01	2.991351e+01	0.000000e+00
	-6.756066e+01	2.988014e+01	0.000000e+00
	-6.752523e+01	3.270362e+01	0.000000e+00
	-6.463000e+01	2.983182e+01	0.000000e+00
	-6.458207e+01	3.266313e+01	0.000000e+00
	-6.169952e+01	2.976726e+01	0.000000e+00
	-6.163670e+01	3.260783e+01	0.000000e+00
	-5.876856e+01	2.968546e+01	0.000000e+00
	-5.868900e+01	3.253522e+01	0.000000e+00
	-5.583683e+01	2.958653e+01	0.000000e+00
	-5.573951e+01	3.244420e+01	0.000000e+00
	-5.290419e+01	2.947068e+01	0.000000e+00
	-5.278900e+01	3.233360e+01	0.000000e+00
	-4.997059e+01	2.933819e+01	0.000000e+00
	-4.983822e+01	3.220393e+01	0.000000e+00
	-4.703603e+01	2.918932e+01	0.000000e+00
	-4.688734e+01	3.205591e+01	0.000000e+00
	-4.410049e+01	2.902434e+01	0.000000e+00
	-4.393619e+01	3.189082e+01	0.000000e+00
	-4.116399e+01	2.884351e+01	0.000000e+00
	-4.098456e+01	3.170956e+01	0.000000e+00
	-3.822652e+01	2.864709e+01	0.000000e+00
	-3.803232e+01	3.151267e+01	0.000000e+00
	-3.528808e+01	2.843533e+01	0.000000e+00
	-3.507940e+01	3.130049e+01	0.000000e+00
	-3.234866e+01	2.820851e+01	0.000000e+00
	-3.212579e+01	3.107327e+01	0.000000e+00
	-2.940828e+01	2.796688e+01	0.000000e+00
	-2.917145e+01	3.083127e+01	0.000000e+00
	-2.646692e+01	2.771069e+01	0.000000e+00
	-2.621640e+01	3.057473e+01	0.000000e+00
	-2.352460e+01	2.744022e+01	0.000000e+00
	-2.326062e+01	3.030390e+01	0.000000e+00
	-2.058131e+01	2.715572e+01	0.000000e+00
	-2.030413e+01	3.001904e+01	0.000000e+00
	-1.763704e+01	2.685744e+01	0.000000e+00
	-1.734690e+01	2.972041e+01	0.000000e+00
	-1.469181e+01	2.654566e+01	0.000000e+00
	-1.438896e+01	2.940828e+01	0.000000e+00
	-1.174561e+01	2.622062e+01	0.000000e+00
	-1.143029e+01	2.908289e+01	0.000000e+00
	-8.798433e+00	2.588259e+01	0.000000e+00
	-8.470900e+00	2.874451e+01	0.000000e+00
	-5.850289e+00	2.553183e+01	0.000000e+00
	-5.510786e+00	2.839340e+01	0.000000e+00
	-2.901176e+00	2.516860e+01	0.000000e+00
	-2.549949e+00	2.802982e+01	0.000000e+00
	4.890736e-02	2.479316e+01	0.000000e+00
	4.116115e-01	2.765403e+01	0.000000e+00
	2.999961e+00	2.440577e+01	0.000000e+00
	3.373895e+00	2.726629e+01	0.000000e+00
	5.951984e+00	2.400668e+01	0.000000e+00
	6.336902e+00	2.686685e+01	0.000000e+00
	8.904977e+00	2.359616e+01	0.000000e+00
	9.300632e+00	2.645598e+01	0.000000e+00
	1.185894e+01	2.317447e+01	0.000000e+00
	1.226508e+01	2.603394e+01	0.000000e+00
	1.481387e+01	2.274187e+01	0.000000e+00
	1.523026e+01	2.560099e+01	0.000000e+00
	1.776978e+01	2.229861e+01	0.000000e+00
	1.819616e+01	2.515738e+01	0.000000e+00
	2.072665e+01	2.184496e+01	0.000000e+00
	2.116278e+01	2.470339e+01	0.000000e+00
	2.368449e+01	2.138118e+01	0.000000e+00
	2.413013e+01	2.423925e+01	0.000000e+00
	2.664331e+01	2.090752e+01	0.000000e+00
	2.709820e+01	2.376525e+01	0.000000e+00
	2.960309e+01	2.042426e+01	0.000000e+00
	3.006699e+01	2.328163e+01	0.000000e+00
	3.256384e+01	1.993163e+01	0.000000e+00
	3.303650e+01	2.278866e+01	0.000000e+00
	3.552556e+01	1.942992e+01	0.000000e+00
	3.600674e+01	2.228659e+01	0.000000e+00
	3.848826e+01	1.891937e+01	0.000000e+00
	3.897770e+01	2.177570e+01	0.000000e+00
	4.145192e+01	1.840024e+01	0.000000e+00
	4.194939e+01	2.125622e+01	0.000000e+00
	4.441655e+01	1.787280e+01	0.000000e+00
	4.492180e+01	2.072844e+01	0.000000e+00
	4.738216e+01	1.733731e+01	0.000000e+00
	4.789493e+01	2.019259e+01	0.000000e+00
	5.034873e+01	1.679402e+01	0.000000e+00
	5.086878e+01	1.964896e+01	0.000000e+00
	5.331627e+01	1.624320e+01	0.000000e+00
	5.384336e+01	1.909779e+01	0.000000e+00
	5.628478e+01	1.568510e+01	0.000000e+00
	5.681866e+01	1.853934e+01	0.000000e+00
	5.925427e+01	1.511999e+01	0.000000e+00
	5.979468e+01	1.797388e+01	0.000000e+00
	6.222472e+01	1.454812e+01	0.000000e+00
	6.277143e+01	1.740166e+01	0.000000e+00
	6.519614e+01	1.396975e+01	0.000000e+00
	6.574890e+01	1.682295e+01	0.000000e+00
	6.816853e+01	1.338515e+01	0.000000e+00
	6.872709e+01	1.623800e+01	0.000000e+00
	7.114189e+01	1.279458e+01	0.000000e+00
	7.170601e+01	1.564708e+01	0.000000e+00
	7.411623e+01	1.219829e+01	0.000000e+00
	7.468564e+01	1.505044e+01	0.000000e+00
	7.709153e+01	1.159654e+01	0.000000e+00
	7.766601e+01	1.444835e+01	0.000000e+00
	8.006780e+01	1.098959e+01	0.000000e+00
	8.064709e+01	1.384105e+01	0.000000e+00
	8.304504e+01	1.037771e+01	0.000000e+00
	8.362890e+01	1.322883e+01	0.000000e+00
	8.602326e+01	9.761153e+00	0.000000e+00
	8.661143e+01	1.261192e+01	0.000000e+00
	8.900244e+01	9.140178e+00	0.000000e+00
	8.959469e+01	1.199060e+01	0.000000e+00
	9.198259e+01	8.515046e+00	0.000000e+00
	9.257866e+01	1.136512e+01	0.000000e+00
	9.496371e+01	7.886016e+00	0.000000e+00
	9.556336e+01	1.073575e+01	0.000000e+00
	9.794579e+01	7.253347e+00	0.000000e+00
	9.854879e+01	1.010273e+01	0.000000e+00
	1.009288e+02	6.617296e+00	0.000000e+00
	1.015349e+02	9.466334e+00	0.000000e+00
	1.039129e+02	5.978119e+00	0.000000e+00
	1.045218e+02	8.826810e+00	0.000000e+00
	1.068979e+02	5.336071e+00	0.000000e+00
	1.075094e+02	8.184404e+00	0.000000e+00
	1.098838e+02	4.691404e+00	0.000000e+00
	1.104977e+02	7.539339e+00	0.000000e+00
	1.128708e+02	4.044370e+00	0.000000e+00
	1.134867e+02	6.891717e+00	0.000000e+00
	1.158588e+02	3.395227e+00	0.000000e+00
	1.164766e+02	6.242148e+00	0.000000e+00
	1.188478e+02	2.744253e+00	0.000000e+00
	1.194668e+02	5.589351e+00	0.000000e+00
	1.218380e+02	2.091770e+00	0.000000e+00
	1.224571e+02	4.931839e+00	0.000000e+00
	1.248295e+02	1.438178e+00	0.000000e+00
	1.254475e+02	4.270052e+00	0.000000e+00
	1.278222e+02	7.839887e-01	0.000000e+00
	1.284384e+02	3.606236e+00	0.000000e+00
	1.308162e+02	1.298116e-01	0.000000e+00
	1.314300e+02	2.942539e+00	0.000000e+00
	1.338110e+02	-5.237820e-01	0.000000e+00
	1.344225e+02	2.280106e+00	0.000000e+00
	1.368062e+02	-1.176677e+00	0.000000e+00
	1.374154e+02	1.618682e+00	0.000000e+00
	1.380239e+02	4.413780e+00	0.000000e+00
	1.350327e+02	5.082312e+00	0.000000e+00
	1.386318e+02	7.208051e+00	0.000000e+00
	1.356411e+02	7.880108e+00	0.000000e+00
	1.392395e+02	1.000096e+01	0.000000e+00
	1.362481e+02	1.067278e+01	0.000000e+00
	1.398477e+02	1.279197e+01	0.000000e+00
	1.368546e+02	1.346157e+01	0.000000e+00
	1.404574e+02	1.558018e+01	0.000000e+00
	1.374624e+02	1.624870e+01	0.000000e+00
	1.410710e+02	1.836373e+01	0.000000e+00
	1.380741e+02	1.903674e+01	0.000000e+00
	1.416997e+02	2.113913e+01	0.000000e+00
	1.386957e+02	2.182804e+01	0.000000e+00
	1.356936e+02	2.248925e+01	0.000000e+00
	1.350802e+02	1.970422e+01	0.000000e+00
	1.326929e+02	2.314681e+01	0.000000e+00
	1.320843e+02	2.036666e+01	0.000000e+00
	1.296927e+02	2.380199e+01	0.000000e+00
	1.290872e+02	2.102620e+01	0.000000e+00
	1.266923e+02	2.445569e+01	0.000000e+00
	1.260891e+02	2.168290e+01	0.000000e+00
	1.236914e+02	2.510796e+01	0.000000e+00
	1.230901e+02	2.233720e+01	0.000000e+00
	1.206897e+02	2.575867e+01	0.000000e+00
	1.200902e+02	2.298890e+01	0.000000e+00
	1.176872e+02	2.640759e+01	0.000000e+00
	1.170895e+02	2.363845e+01	0.000000e+00
	1.146837e+02	2.705446e+01	0.000000e+00
	1.140881e+02	2.428587e+01	0.000000e+00
	1.116794e+02	2.769903e+01	0.000000e+00
	1.110860e+02	2.493090e+01	0.000000e+00
	1.086740e+02	2.834103e+01	0.000000e+00
	1.080832e+02	2.557331e+01	0.000000e+00
	1.056677e+02	2.898018e+01	0.000000e+00
	1.050796e+02	2.621284e+01	0.000000e+00
	1.026604e+02	2.961622e+01	0.000000e+00
	1.020753e+02	2.684923e+01	0.000000e+00
	9.965208e+01	3.024888e+01	0.000000e+00
	9.907026e+01	2.748224e+01	0.000000e+00
	9.664283e+01	3.087791e+01	0.000000e+00
	9.606450e+01	2.811161e+01	0.000000e+00
	9.363261e+01	3.150304e+01	0.000000e+00
	9.305801e+01	2.873709e+01	0.000000e+00
	9.062142e+01	3.212402e+01	0.000000e+00
	9.005078e+01	2.935840e+01	0.000000e+00
	8.760926e+01	3.274058e+01	0.000000e+00
	8.704283e+01	2.997530e+01	0.000000e+00
	8.459613e+01	3.335246e+01	0.000000e+00
	8.403415e+01	3.058752e+01	0.000000e+00
	8.158203e+01	3.395941e+01	0.000000e+00
	8.102473e+01	3.119480e+01	0.000000e+00
	7.856696e+01	3.456115e+01	0.000000e+00
	7.801459e+01	3.179689e+01	0.000000e+00
	7.555092e+01	3.515745e+01	0.000000e+00
	7.500372e+01	3.239352e+01	0.000000e+00
	7.253391e+01	3.574802e+01	0.000000e+00
	7.199212e+01	3.298443e+01	0.000000e+00
	6.951593e+01	3.633262e+01	0.000000e+00
	6.897979e+01	3.356937e+01	0.000000e+00
	6.649698e+01	3.691099e+01	0.000000e+00
	6.596673e+01	3.414808e+01	0.000000e+00
	6.347706e+01	3.748286e+01	0.000000e+00
	6.295294e+01	3.472028e+01	0.000000e+00
	6.045617e+01	3.804797e+01	0.000000e+00
	5.993842e+01	3.528574e+01	0.000000e+00
	5.743431e+01	3.860607e+01	0.000000e+00
	5.692317e+01	3.584417e+01	0.000000e+00
	5.441148e+01	3.915689e+01	0.000000e+00
	5.390719e+01	3.639534e+01	0.000000e+00
	5.138768e+01	3.970018e+01	0.000000e+00
	5.089048e+01	3.693896e+01	0.000000e+00
	4.836291e+01	4.023567e+01	0.000000e+00
	4.787304e+01	3.747480e+01	0.000000e+00
	4.533717e+01	4.076311e+01	0.000000e+00
	4.485488e+01	3.800257e+01	0.000000e+00
	4.231046e+01	4.128224e+01	0.000000e+00
	4.183598e+01	3.852204e+01	0.000000e+00
	3.928278e+01	4.179279e+01	0.000000e+00
	3.881635e+01	3.903293e+01	0.000000e+00
	3.625413e+01	4.229450e+01	0.000000e+00
	3.579600e+01	3.953499e+01	0.000000e+00
	3.322451e+01	4.278712e+01	0.000000e+00
	3.277491e+01	4.002795e+01	0.000000e+00
	3.019392e+01	4.327039e+01	0.000000e+00
	2.975309e+01	4.051156e+01	0.000000e+00
	2.716236e+01	4.374405e+01	0.000000e+00
	2.673055e+01	4.098555e+01	0.000000e+00
	2.412983e+01	4.420783e+01	0.000000e+00
	2.370728e+01	4.144967e+01	0.000000e+00
	2.109633e+01	4.466148e+01	0.000000e+00
	2.068327e+01	4.190366e+01	0.000000e+00
	1.806186e+01	4.510474e+01	0.000000e+00
	1.765854e+01	4.234726e+01	0.000000e+00
	1.502642e+01	4.553734e+01	0.000000e+00
	1.463307e+01	4.278020e+01	0.000000e+00
	1.199001e+01	4.595903e+01	0.000000e+00
	1.160688e+01	4.320223e+01	0.000000e+00
	8.952634e+00	4.636955e+01	0.000000e+00
	8.579960e+00	4.361309e+01	0.000000e+00
	5.914284e+00	4.676864e+01	0.000000e+00
	5.552308e+00	4.401252e+01	0.000000e+00
	2.874965e+00	4.715603e+01	0.000000e+00
	2.523927e+00	4.440025e+01	0.000000e+00
	-1.653241e-01	4.753147e+01	0.000000e+00
	-5.051842e-01	4.477604e+01	0.000000e+00
	-3.206583e+00	4.789470e+01	0.000000e+00
	-3.535025e+00	4.513961e+01	0.000000e+00
	-6.248812e+00	4.824546e+01	0.000000e+00
	-6.565595e+00	4.549071e+01	0.000000e+00
	-9.292012e+00	4.858349e+01	0.000000e+00
	-9.596894e+00	4.582908e+01	0.000000e+00
	-1.233618e+01	4.890853e+01	0.000000e+00
	-1.262892e+01	4.615446e+01	0.000000e+00
	-1.538132e+01	4.922031e+01	0.000000e+00
	-1.566168e+01	4.646658e+01	0.000000e+00
	-1.842743e+01	4.951859e+01	0.000000e+00
	-1.869517e+01	4.676520e+01	0.000000e+00
	-2.147451e+01	4.980309e+01	0.000000e+00
	-2.172939e+01	4.705004e+01	0.000000e+00
	-2.452256e+01	5.007356e+01	0.000000e+00
	-2.476434e+01	4.732086e+01	0.000000e+00
	-2.757158e+01	5.032975e+01	0.000000e+00
	-2.780001e+01	4.757738e+01	0.000000e+00
	-3.062156e+01	5.057138e+01	0.000000e+00
	-3.083642e+01	4.781936e+01	0.000000e+00
	-3.367252e+01	5.079820e+01	0.000000e+00
	-3.387356e+01	4.804653e+01	0.000000e+00
	-3.672445e+01	5.100996e+01	0.000000e+00
	-3.691142e+01	4.825866e+01	0.000000e+00
	-3.977735e+01	5.120638e+01	0.000000e+00
	-3.995002e+01	4.845555e+01	0.000000e+00
	-4.283122e+01	5.138722e+01	0.000000e+00
	-4.298934e+01	4.863718e+01	0.000000e+00
	-4.588606e+01	5.155221e+01	0.000000e+00
	-4.602939e+01	4.880314e+01	0.000000e+00
	-4.894187e+01	5.170108e+01	0.000000e+00
	-4.907088e+01	4.895214e+01	0.000000e+00
	-5.199865e+01	5.183358e+01	0.000000e+00
	-5.211463e+01	4.908319e+01	0.000000e+00
	-5.505638e+01	5.194942e+01	0.000000e+00
	-5.515962e+01	4.919557e+01	0.000000e+00
	-5.811503e+01	5.204834e+01	0.000000e+00
	-5.820424e+01	4.928933e+01	0.000000e+00
	-6.117444e+01	5.213012e+01	0.000000e+00
	-6.124780e+01	4.936562e+01	0.000000e+00
	-6.423434e+01	5.219467e+01	0.000000e+00
	-6.429092e+01	4.942604e+01	0.000000e+00
	-6.729404e+01	5.224299e+01	0.000000e+00
	-6.733468e+01	4.947158e+01	0.000000e+00
	-6.743519e+01	4.112356e+01	0.000000e+00
	-6.740420e+01	4.391338e+01	0.000000e+00
	-6.746444e+01	3.832759e+01	0.000000e+00
	-6.749364e+01	3.552145e+01	0.000000e+00
	-6.453565e+01	3.548569e+01	0.000000e+00
	-6.157464e+01	3.543614e+01	0.000000e+00
	-5.861043e+01	3.536950e+01	0.000000e+00
	-5.564384e+01	3.528496e+01	0.000000e+00
	-5.267596e+01	3.517847e+01	0.000000e+00
	-4.970826e+01	3.505120e+01	0.000000e+00
	-4.674123e+01	3.490383e+01	0.000000e+00
	-4.377455e+01	3.473861e+01	0.000000e+00
	-4.080786e+01	3.455699e+01	0.000000e+00
	-3.784092e+01	3.435974e+01	0.000000e+00
	-3.487360e+01	3.414723e+01	0.000000e+00
	-3.190584e+01	3.391972e+01	0.000000e+00
	-2.893762e+01	3.367745e+01	0.000000e+00
	-2.596892e+01	3.342065e+01	0.000000e+00
	-2.299975e+01	3.314957e+01	0.000000e+00
	-2.003011e+01	3.286446e+01	0.000000e+00
	-1.705999e+01	3.256559e+01	0.000000e+00
	-1.408939e+01	3.225320e+01	0.000000e+00
	-1.111831e+01	3.192757e+01	0.000000e+00
	-8.146756e+00	3.158895e+01	0.000000e+00
	-5.174725e+00	3.123759e+01	0.000000e+00
	-2.202216e+00	3.087376e+01	0.000000e+00
	7.707710e-01	3.049772e+01	0.000000e+00
	3.744235e+00	3.010973e+01	0.000000e+00
	6.718176e+00	2.971005e+01	0.000000e+00
	9.692595e+00	2.929893e+01	0.000000e+00
	1.266749e+01	2.887664e+01	0.000000e+00
	1.564286e+01	2.844344e+01	0.000000e+00
	1.861872e+01	2.799959e+01	0.000000e+00
	2.159504e+01	2.754535e+01	0.000000e+00
	2.457185e+01	2.708097e+01	0.000000e+00
	2.754913e+01	2.660672e+01	0.000000e+00
	3.052689e+01	2.612285e+01	0.000000e+00
	3.350513e+01	2.562964e+01	0.000000e+00
	3.648385e+01	2.512732e+01	0.000000e+00
	3.946304e+01	2.461618e+01	0.000000e+00
	4.244271e+01	2.409646e+01	0.000000e+00
	4.542286e+01	2.356843e+01	0.000000e+00
	4.840348e+01	2.303234e+01	0.000000e+00
	5.138459e+01	2.248846e+01	0.000000e+00
	5.436617e+01	2.193704e+01	0.000000e+00
	5.734823e+01	2.137835e+01	0.000000e+00
	6.033076e+01	2.081264e+01	0.000000e+00
	6.331377e+01	2.024018e+01	0.000000e+00
	6.629726e+01	1.966123e+01	0.000000e+00
	6.928123e+01	1.907603e+01	0.000000e+00
	7.226567e+01	1.848486e+01	0.000000e+00
	7.525060e+01	1.788798e+01	0.000000e+00
	7.823600e+01	1.728564e+01	0.000000e+00
	8.122187e+01	1.667810e+01	0.000000e+00
	8.420823e+01	1.606563e+01	0.000000e+00
	8.719506e+01	1.544848e+01	0.000000e+00
	9.018237e+01	1.482691e+01	0.000000e+00
	9.317016e+01	1.420119e+01	0.000000e+00
	9.615842e+01	1.357157e+01	0.000000e+00
	9.914716e+01	1.293831e+01	0.000000e+00
	1.021364e+02	1.230166e+01	0.000000e+00
	1.051261e+02	1.166188e+01	0.000000e+00
	1.081163e+02	1.101918e+01	0.000000e+00
	1.111069e+02	1.037366e+01	0.000000e+00
	1.140980e+02	9.725768e+00	0.000000e+00
	1.170894e+02	9.075242e+00	0.000000e+00
	1.200806e+02	8.419864e+00	0.000000e+00
	1.230710e+02	7.757910e+00	0.000000e+00
	1.260609e+02	7.090455e+00	0.000000e+00
	1.290508e+02	6.420500e+00	0.000000e+00
	1.320413e+02	5.750596e+00	0.000000e+00
	1.326504e+02	8.552738e+00	0.000000e+00
	1.332571e+02	1.134639e+01	0.000000e+00
	1.338629e+02	1.413406e+01	0.000000e+00
	1.344698e+02	1.691936e+01	0.000000e+00
	1.314773e+02	1.758815e+01	0.000000e+00
	1.284834e+02	1.825323e+01	0.000000e+00
	1.254879e+02	1.891431e+01	0.000000e+00
	1.224914e+02	1.957221e+01	0.000000e+00
	1.194935e+02	2.022542e+01	0.000000e+00
	1.164948e+02	2.087573e+01	0.000000e+00
	1.134955e+02	2.152363e+01	0.000000e+00
	1.104956e+02	2.216905e+01	0.000000e+00
	1.074953e+02	2.281177e+01	0.000000e+00
	1.044945e+02	2.345157e+01	0.000000e+00
	1.014932e+02	2.408822e+01	0.000000e+00
	9.849139e+01	2.472148e+01	0.000000e+00
	9.548910e+01	2.535110e+01	0.000000e+00
	9.248632e+01	2.597681e+01	0.000000e+00
	8.948305e+01	2.659837e+01	0.000000e+00
	8.647930e+01	2.721551e+01	0.000000e+00
	8.347505e+01	2.782797e+01	0.000000e+00
	8.047031e+01	2.843550e+01	0.000000e+00
	7.746508e+01	2.903783e+01	0.000000e+00
	7.445937e+01	2.963470e+01	0.000000e+00
	7.145316e+01	3.022586e+01	0.000000e+00
	6.844646e+01	3.081104e+01	0.000000e+00
	6.543928e+01	3.138999e+01	0.000000e+00
	6.243160e+01	3.196244e+01	0.000000e+00
	5.942344e+01	3.252814e+01	0.000000e+00
	5.641478e+01	3.308682e+01	0.000000e+00
	5.340564e+01	3.363822e+01	0.000000e+00
	5.039600e+01	3.418209e+01	0.000000e+00
	4.738588e+01	3.471817e+01	0.000000e+00
	4.437526e+01	3.524619e+01	0.000000e+00
	4.136416e+01	3.576590e+01	0.000000e+00
	3.835256e+01	3.627703e+01	0.000000e+00
	3.534048e+01	3.677933e+01	0.000000e+00
	3.232790e+01	3.727254e+01	0.000000e+00
	2.931484e+01	3.775639e+01	0.000000e+00
	2.630129e+01	3.823063e+01	0.000000e+00
	2.328724e+01	3.869500e+01	0.000000e+00
	2.027271e+01	3.914923e+01	0.000000e+00
	1.725769e+01	3.959307e+01	0.000000e+00
	1.424217e+01	4.002626e+01	0.000000e+00
	1.122617e+01	4.044853e+01	0.000000e+00
	8.209679e+00	4.085964e+01	0.000000e+00
	5.192697e+00	4.125931e+01	0.000000e+00
	2.175225e+00	4.164729e+01	0.000000e+00
	-8.427373e-01	4.202331e+01	0.000000e+00
	-3.861189e+00	4.238713e+01	0.000000e+00
	-6.880130e+00	4.273847e+01	0.000000e+00
	-9.899562e+00	4.307709e+01	0.000000e+00
	-1.291948e+01	4.340271e+01	0.000000e+00
	-1.593989e+01	4.371508e+01	0.000000e+00
	-1.896079e+01	4.401394e+01	0.000000e+00
	-2.198218e+01	4.429903e+01	0.000000e+00
	-2.500406e+01	4.457010e+01	0.000000e+00
	-2.802643e+01	4.482687e+01	0.000000e+00
	-3.104930e+01	4.506910e+01	0.000000e+00
	-3.407265e+01	4.529655e+01	0.000000e+00
	-3.709649e+01	4.550903e+01	0.000000e+00
	-4.012083e+01	4.570650e+01	0.000000e+00
	-4.314567e+01	4.588888e+01	0.000000e+00
	-4.617144e+01	4.605512e+01	0.000000e+00
	-4.919927e+01	4.620338e+01	0.000000e+00
	-5.222958e+01	4.633153e+01	0.000000e+00
	-5.526063e+01	4.643929e+01	0.000000e+00
	-5.829043e+01	4.652770e+01	0.000000e+00
	-6.131808e+01	4.659849e+01	0.000000e+00
	-6.434456e+01	4.665435e+01	0.000000e+00
	-6.737118e+01	4.669667e+01	0.000000e+00
	-6.448975e+01	3.829474e+01	0.000000e+00
	-6.444299e+01	4.109050e+01	0.000000e+00
	-6.151222e+01	3.824673e+01	0.000000e+00
	-5.554921e+01	3.810180e+01	0.000000e+00
	-5.853180e+01	3.818113e+01	0.000000e+00
	-5.256456e+01	3.799708e+01	0.000000e+00
	-4.958041e+01	3.787180e+01	0.000000e+00
	-4.659754e+01	3.772447e+01	0.000000e+00
	-4.361556e+01	3.755900e+01	0.000000e+00
	-4.063398e+01	3.737709e+01	0.000000e+00
	-3.765247e+01	3.717958e+01	0.000000e+00
	-3.467086e+01	3.696686e+01	0.000000e+00
	-3.168907e+01	3.673917e+01	0.000000e+00
	-2.870707e+01	3.649674e+01	0.000000e+00
	-2.572484e+01	3.623978e+01	0.000000e+00
	-2.274238e+01	3.596856e+01	0.000000e+00
	-1.975969e+01	3.568330e+01	0.000000e+00
	-1.677676e+01	3.538428e+01	0.000000e+00
	-1.379360e+01	3.507175e+01	0.000000e+00
	-1.081021e+01	3.474598e+01	0.000000e+00
	-7.826583e+00	3.440720e+01	0.000000e+00
	-4.842724e+00	3.405570e+01	0.000000e+00
	-1.858631e+00	3.369173e+01	0.000000e+00
	1.125695e+00	3.331555e+01	0.000000e+00
	4.110255e+00	3.292741e+01	0.000000e+00
	7.095049e+00	3.252758e+01	0.000000e+00
	1.008008e+01	3.211632e+01	0.000000e+00
	1.306534e+01	3.169389e+01	0.000000e+00
	1.605083e+01	3.126055e+01	0.000000e+00
	1.903656e+01	3.081655e+01	0.000000e+00
	2.202252e+01	3.036216e+01	0.000000e+00
	2.500871e+01	2.989764e+01	0.000000e+00
	2.799514e+01	2.942324e+01	0.000000e+00
	3.098180e+01	2.893923e+01	0.000000e+00
	3.396870e+01	2.844587e+01	0.000000e+00
	3.695583e+01	2.794342e+01	0.000000e+00
	3.994319e+01	2.743213e+01	0.000000e+00
	4.293079e+01	2.691226e+01	0.000000e+00
	4.591862e+01	2.638409e+01	0.000000e+00
	4.890668e+01	2.584785e+01	0.000000e+00
	5.189498e+01	2.530383e+01	0.000000e+00
	5.488351e+01	2.475227e+01	0.000000e+00
	5.787227e+01	2.419343e+01	0.000000e+00
	6.086127e+01	2.362758e+01	0.000000e+00
	6.385050e+01	2.305498e+01	0.000000e+00
	6.683996e+01	2.247587e+01	0.000000e+00
	6.982966e+01	2.189054e+01	0.000000e+00
	7.281959e+01	2.129922e+01	0.000000e+00
	7.580976e+01	2.070220e+01	0.000000e+00
	7.880016e+01	2.009971e+01	0.000000e+00
	8.179079e+01	1.949203e+01	0.000000e+00
	8.478166e+01	1.887942e+01	0.000000e+00
	8.777276e+01	1.826212e+01	0.000000e+00
	9.076409e+01	1.764041e+01	0.000000e+00
	9.375566e+01	1.701455e+01	0.000000e+00
	9.674746e+01	1.638478e+01	0.000000e+00
	9.973950e+01	1.575137e+01	0.000000e+00
	1.027318e+02	1.511457e+01	0.000000e+00
	1.057243e+02	1.447462e+01	0.000000e+00
	1.087170e+02	1.383166e+01	0.000000e+00
	1.117099e+02	1.318595e+01	0.000000e+00
	1.147030e+02	1.253779e+01	0.000000e+00
	1.176960e+02	1.188627e+01	0.000000e+00
	1.206883e+02	1.122919e+01	0.000000e+00
	1.236794e+02	1.056510e+01	0.000000e+00
	1.266696e+02	9.895549e+00	0.000000e+00
	1.296596e+02	9.223590e+00	0.000000e+00
	1.302662e+02	1.201875e+01	0.000000e+00
	1.308715e+02	1.480584e+01	0.000000e+00
	1.278798e+02	1.547573e+01	0.000000e+00
	1.218929e+02	1.680394e+01	0.000000e+00
	1.248866e+02	1.614050e+01	0.000000e+00
	1.188968e+02	1.745824e+01	0.000000e+00
	1.159001e+02	1.810927e+01	0.000000e+00
	1.129029e+02	1.875753e+01	0.000000e+00
	1.099054e+02	1.940321e+01	0.000000e+00
	1.069076e+02	2.004614e+01	0.000000e+00
	1.039095e+02	2.068612e+01	0.000000e+00
	1.009112e+02	2.132293e+01	0.000000e+00
	9.791266e+01	2.195634e+01	0.000000e+00
	9.491385e+01	2.258610e+01	0.000000e+00
	9.191479e+01	2.321196e+01	0.000000e+00
	8.891548e+01	2.383367e+01	0.000000e+00
	8.591593e+01	2.445095e+01	0.000000e+00
	8.291612e+01	2.506356e+01	0.000000e+00
	7.991606e+01	2.567124e+01	0.000000e+00
	7.691576e+01	2.627372e+01	0.000000e+00
	7.391520e+01	2.687074e+01	0.000000e+00
	7.091439e+01	2.746204e+01	0.000000e+00
	6.791334e+01	2.804737e+01	0.000000e+00
	6.491203e+01	2.862647e+01	0.000000e+00
	6.191048e+01	2.919906e+01	0.000000e+00
	5.890867e+01	2.976491e+01	0.000000e+00
	5.590662e+01	3.032374e+01	0.000000e+00
	5.290431e+01	3.087529e+01	0.000000e+00
	4.990176e+01	3.141931e+01	0.000000e+00
	4.689896e+01	3.195553e+01	0.000000e+00
	4.389590e+01	3.248370e+01	0.000000e+00
	4.089260e+01	3.300356e+01	0.000000e+00
	3.788905e+01	3.351484e+01	0.000000e+00
	3.488524e+01	3.401729e+01	0.000000e+00
	3.188119e+01	3.451064e+01	0.000000e+00
	2.887689e+01	3.499464e+01	0.000000e+00
	2.587233e+01	3.546903e+01	0.000000e+00
	2.286753e+01	3.593355e+01	0.000000e+00
	1.986248e+01	3.638793e+01	0.000000e+00
	1.685718e+01	3.683192e+01	0.000000e+00
	1.385163e+01	3.726525e+01	0.000000e+00
	1.084583e+01	3.768768e+01	0.000000e+00
	7.839775e+00	3.809893e+01	0.000000e+00
	4.833474e+00	3.849875e+01	0.000000e+00
	1.826924e+00	3.888688e+01	0.000000e+00
	-1.179877e+00	3.926306e+01	0.000000e+00
	-4.186927e+00	3.962702e+01	0.000000e+00
	-7.194227e+00	3.997851e+01	0.000000e+00
	-1.020178e+01	4.031728e+01	0.000000e+00
	-1.320958e+01	4.064305e+01	0.000000e+00
	-1.621762e+01	4.095557e+01	0.000000e+00
	-1.922592e+01	4.125458e+01	0.000000e+00
	-2.223447e+01	4.153982e+01	0.000000e+00
	-2.524327e+01	4.181104e+01	0.000000e+00
	-2.825232e+01	4.206797e+01	0.000000e+00
	-3.126162e+01	4.231037e+01	0.000000e+00
	-3.427118e+01	4.253804e+01	0.000000e+00
	-3.728100e+01	4.275081e+01	0.000000e+00
	-4.029112e+01	4.294864e+01	0.000000e+00
	-4.330169e+01	4.313115e+01	0.000000e+00
	-4.631333e+01	4.329720e+01	0.000000e+00
	-4.932697e+01	4.344467e+01	0.000000e+00
	-5.234270e+01	4.356960e+01	0.000000e+00
	-5.535860e+01	4.367352e+01	0.000000e+00
	-5.837303e+01	4.375842e+01	0.000000e+00
	-6.138466e+01	4.382492e+01	0.000000e+00
	-6.439443e+01	4.387694e+01	0.000000e+00
	-4.945393e+01	4.066668e+01	0.000000e+00
	-5.245403e+01	4.078889e+01	0.000000e+00
	-4.645558e+01	4.051796e+01	0.000000e+00
	-4.345856e+01	4.035219e+01	0.000000e+00
	-4.046231e+01	4.017009e+01	0.000000e+00
	-3.746640e+01	3.997243e+01	0.000000e+00
	-3.447063e+01	3.975962e+01	0.000000e+00
	-3.147492e+01	3.953187e+01	0.000000e+00
	-2.847924e+01	3.928939e+01	0.000000e+00
	-2.548358e+01	3.903239e+01	0.000000e+00
	-2.248793e+01	3.876112e+01	0.000000e+00
	-1.949229e+01	3.847582e+01	0.000000e+00
	-1.649666e+01	3.817676e+01	0.000000e+00
	-1.350103e+01	3.786418e+01	0.000000e+00
	-1.050542e+01	3.753836e+01	0.000000e+00
	-7.509813e+00	3.719954e+01	0.000000e+00
	-4.514215e+00	3.684800e+01	0.000000e+00
	-1.518626e+00	3.648398e+01	0.000000e+00
	1.476955e+00	3.610775e+01	0.000000e+00
	4.472527e+00	3.571957e+01	0.000000e+00
	7.468091e+00	3.531970e+01	0.000000e+00
	1.046365e+01	3.490839e+01	0.000000e+00
	1.345919e+01	3.448592e+01	0.000000e+00
	1.645473e+01	3.405253e+01	0.000000e+00
	1.945026e+01	3.360849e+01	0.000000e+00
	2.244578e+01	3.315405e+01	0.000000e+00
	2.544130e+01	3.268949e+01	0.000000e+00
	2.843680e+01	3.221505e+01	0.000000e+00
	3.143230e+01	3.173099e+01	0.000000e+00
	3.442778e+01	3.123759e+01	0.000000e+00
	3.742326e+01	3.073509e+01	0.000000e+00
	4.041873e+01	3.022375e+01	0.000000e+00
	4.341420e+01	2.970384e+01	0.000000e+00
	4.640965e+01	2.917562e+01	0.000000e+00
	4.940509e+01	2.863934e+01	0.000000e+00
	5.240053e+01	2.809527e+01	0.000000e+00
	5.539596e+01	2.754367e+01	0.000000e+00
	5.839138e+01	2.698479e+01	0.000000e+00
	6.138679e+01	2.641889e+01	0.000000e+00
	6.438219e+01	2.584624e+01	0.000000e+00
	6.737759e+01	2.526710e+01	0.000000e+00
	7.037297e+01	2.468171e+01	0.000000e+00
	7.336835e+01	2.409036e+01	0.000000e+00
	7.636372e+01	2.349328e+01	0.000000e+00
	7.935908e+01	2.289075e+01	0.000000e+00
	8.235443e+01	2.228303e+01	0.000000e+00
	8.534977e+01	2.167037e+01	0.000000e+00
	8.834511e+01	2.105303e+01	0.000000e+00
	9.134044e+01	2.043127e+01	0.000000e+00
	9.433576e+01	1.980536e+01	0.000000e+00
	9.733107e+01	1.917555e+01	0.000000e+00
	1.003264e+02	1.854209e+01	0.000000e+00
	1.033217e+02	1.790523e+01	0.000000e+00
	1.063169e+02	1.726519e+01	0.000000e+00
	1.093122e+02	1.662217e+01	0.000000e+00
	1.123074e+02	1.597644e+01	0.000000e+00
	1.153025e+02	1.532805e+01	0.000000e+00
	1.182972e+02	1.467617e+01	0.000000e+00
	1.212910e+02	1.401918e+01	0.000000e+00
	1.242833e+02	1.335526e+01	0.000000e+00
	1.272746e+02	1.268661e+01	0.000000e+00
	-5.845266e+01	4.097644e+01	0.000000e+00
	-6.144820e+01	4.104059e+01	0.000000e+00
	-5.545369e+01	4.089095e+01	0.000000e+00
CELLS	568	2840
	4	0	1	2	3
	4	1	4	5	2
	4	4	6	7	5
	4	6	8	9	7
	4	8	10	11	9
	4	10	12	13	11
	4	12	14	15	13
	4	14	16	17	15
	4	17	18	19	15
	4	18	20	21	19
	4	20	22	23	21
	4	22	24	25	23
	4	24	26	27	25
	4	26	28	29	27
	4	28	30	31	29
	4	30	32	33	31
	4	32	34	35	33
	4	34	36	37	35
	4	36	38	39	37
	4	38	40	41	39
	4	40	42	43	41
	4	42	44	45	43
	4	44	46	47	45
	4	46	48	49	47
	4	48	50	51	49
	4	50	52	53	51
	4	52	54	55	53
	4	54	56	57	55
	4	56	58	59	57
	4	58	60	61	59
	4	60	62	63	61
	4	62	64	65	63
	4	64	66	67	65
	4	66	68	69	67
	4	68	70	71	69
	4	70	72	73	71
	4	72	74	75	73
	4	74	76	77	75
	4	76	78	79	77
	4	78	80	81	79
	4	80	82	83	81
	4	82	84	85	83
	4	84	86	87	85
	4	86	88	89	87
	4	88	90	91	89
	4	90	92	93	91
	4	92	94	95	93
	4	94	96	97	95
	4	96	98	99	97
	4	98	100	101	99
	4	100	102	103	101
	4	102	104	105	103
	4	104	106	107	105
	4	106	108	109	107
	4	108	110	111	109
	4	110	112	113	111
	4	112	114	115	113
	4	114	116	117	115
	4	116	118	119	117
	4	118	120	121	119
	4	120	122	123	121
	4	122	124	125	123
	4	124	126	127	125
	4	126	128	129	127
	4	128	130	131	129
	4	130	132	133	131
	4	132	134	135	133
	4	134	136	137	135
	4	136	138	139	137
	4	138	140	141	139
	4	140	142	143	141
	4	142	144	145	143
	4	144	146	147	145
	4	146	148	149	147
	4	148	150	151	149
	4	150	152	153	151
	4	152	154	155	153
	4	154	156	157	155
	4	157	158	159	155
	4	158	160	161	159
	4	160	162	163	161
	4	162	164	165	163
	4	164	166	167	165
	4	166	168	169	167
	4	168	170	171	169
	4	171	172	173	169
	4	172	174	175	173
	4	174	176	177	175
	4	176	178	179	177
	4	178	180	181	179
	4	180	182	183	181
	4	182	184	185	183
	4	184	186	187	185
	4	186	188	189	187
	4	188	190	191	189
	4	190	192	193	191
	4	192	194	195	193
	4	194	196	197	195
	4	196	198	199	197
	4	198	200	201	199
	4	200	202	203	201
	4	202	204	205	203
	4	204	206	207	205
	4	206	208	209	207
	4	208	210	211	209
	4	210	212	213	211
	4	212	214	215	213
	4	214	216	217	215
	4	216	218	219	217
	4	218	220	221	219
	4	220	222	223	221
	4	222	224	225	223
	4	224	226	227	225
	4	226	228	229	227
	4	228	230	231	229
	4	230	232	233	231
	4	232	234	235	233
	4	234	236	237	235
	4	236	238	239	237
	4	238	240	241	239
	4	240	242	243	241
	4	242	244	245	243
	4	244	246	247	245
	4	246	248	249	247
	4	248	250	251	249
	4	250	252	253	251
	4	252	254	255	253
	4	254	256	257	255
	4	256	258	259	257
	4	258	260	261	259
	4	260	262	263	261
	4	262	264	265	263
	4	264	266	267	265
	4	266	268	269	267
	4	268	270	271	269
	4	270	272	273	271
	4	272	274	275	273
	4	274	276	277	275
	4	276	278	279	277
	4	278	280	281	279
	4	280	282	283	281
	4	282	284	285	283
	4	284	286	287	285
	4	286	288	289	287
	4	288	290	291	289
	4	290	292	293	291
	4	292	294	295	293
	4	294	296	297	295
	4	296	298	299	297
	4	298	300	301	299
	4	300	302	303	301
	4	302	304	305	303
	4	304	306	307	305
	4	306	3	2	307
	4	7	9	308	309
	4	9	11	310	308
	4	11	13	311	310
	4	13	15	19	311
	4	19	21	312	311
	4	21	23	313	312
	4	23	25	314	313
	4	25	27	315	314
	4	27	29	316	315
	4	29	31	317	316
	4	31	33	318	317
	4	33	35	319	318
	4	35	37	320	319
	4	37	39	321	320
	4	39	41	322	321
	4	41	43	323	322
	4	43	45	324	323
	4	45	47	325	324
	4	47	49	326	325
	4	49	51	327	326
	4	51	53	328	327
	4	53	55	329	328
	4	55	57	330	329
	4	57	59	331	330
	4	59	61	332	331
	4	61	63	333	332
	4	63	65	334	333
	4	65	67	335	334
	4	67	69	336	335
	4	69	71	337	336
	4	71	73	338	337
	4	73	75	339	338
	4	75	77	340	339
	4	77	79	341	340
	4	79	81	342	341
	4	81	83	343	342
	4	83	85	344	343
	4	85	87	345	344
	4	87	89	346	345
	4	89	91	347	346
	4	91	93	348	347
	4	93	95	349	348
	4	95	97	350	349
	4	97	99	351	350
	4	99	101	352	351
	4	101	103	353	352
	4	103	105	354	353
	4	105	107	355	354
	4	107	109	356	355
	4	109	111	357	356
	4	111	113	358	357
	4	113	115	359	358
	4	115	117	360	359
	4	117	119	361	360
	4	119	121	362	361
	4	121	123	363	362
	4	123	125	364	363
	4	125	127	365	364
	4	127	129	366	365
	4	129	131	367	366
	4	131	133	368	367
	4	133	135	369	368
	4	135	137	370	369
	4	137	139	371	370
	4	139	141	372	371
	4	141	143	373	372
	4	143	145	374	373
	4	145	147	375	374
	4	147	149	376	375
	4	149	151	377	376
	4	151	153	378	377
	4	153	155	159	378
	4	159	161	379	378
	4	161	163	380	379
	4	163	165	381	380
	4	165	167	382	381
	4	167	169	173	382
	4	173	175	383	382
	4	175	177	384	383
	4	177	179	385	384
	4	179	181	386	385
	4	181	183	387	386
	4	183	185	388	387
	4	185	187	389	388
	4	187	189	390	389
	4	189	191	391	390
	4	191	193	392	391
	4	193	195	393	392
	4	195	197	394	393
	4	197	199	395	394
	4	199	201	396	395
	4	201	203	397	396
	4	203	205	398	397
	4	205	207	399	398
	4	207	209	400	399
	4	209	211	401	400
	4	211	213	402	401
	4	213	215	403	402
	4	215	217	404	403
	4	217	219	405	404
	4	219	221	406	405
	4	221	223	407	406
	4	223	225	408	407
	4	225	227	409	408
	4	227	229	410	409
	4	229	231	411	410
	4	231	233	412	411
	4	233	235	413	412
	4	235	237	414	413
	4	237	239	415	414
	4	239	241	416	415
	4	241	243	417	416
	4	243	245	418	417
	4	245	247	419	418
	4	247	249	420	419
	4	249	251	421	420
	4	251	253	422	421
	4	253	255	423	422
	4	255	257	424	423
	4	257	259	425	424
	4	259	261	426	425
	4	261	263	427	426
	4	263	265	428	427
	4	265	267	429	428
	4	267	269	430	429
	4	269	271	431	430
	4	271	273	432	431
	4	273	275	433	432
	4	275	277	434	433
	4	277	279	435	434
	4	279	281	436	435
	4	281	283	437	436
	4	283	285	438	437
	4	285	287	439	438
	4	287	289	440	439
	4	289	291	441	440
	4	291	293	442	441
	4	293	295	443	442
	4	295	297	444	443
	4	297	299	445	444
	4	299	301	446	445
	4	301	303	447	446
	4	303	305	448	447
	4	305	307	449	448
	4	307	2	5	449
	4	5	7	309	449
	4	308	310	450	451
	4	450	312	313	452
	4	314	315	453	454
	4	313	314	454	452
	4	315	316	455	453
	4	316	317	456	455
	4	317	318	457	456
	4	318	319	458	457
	4	319	320	459	458
	4	320	321	460	459
	4	321	322	461	460
	4	322	323	462	461
	4	323	324	463	462
	4	324	325	464	463
	4	325	326	465	464
	4	326	327	466	465
	4	327	328	467	466
	4	328	329	468	467
	4	329	330	469	468
	4	330	331	470	469
	4	331	332	471	470
	4	332	333	472	471
	4	333	334	473	472
	4	334	335	474	473
	4	335	336	475	474
	4	336	337	476	475
	4	337	338	477	476
	4	338	339	478	477
	4	339	340	479	478
	4	340	341	480	479
	4	341	342	481	480
	4	342	343	482	481
	4	343	344	483	482
	4	344	345	484	483
	4	345	346	485	484
	4	346	347	486	485
	4	347	348	487	486
	4	348	349	488	487
	4	349	350	489	488
	4	350	351	490	489
	4	351	352	491	490
	4	352	353	492	491
	4	353	354	493	492
	4	354	355	494	493
	4	355	356	495	494
	4	356	357	496	495
	4	357	358	497	496
	4	358	359	498	497
	4	359	360	499	498
	4	360	361	500	499
	4	361	362	501	500
	4	362	363	502	501
	4	363	364	503	502
	4	364	365	504	503
	4	365	366	505	504
	4	366	367	506	505
	4	367	368	507	506
	4	368	369	508	507
	4	369	370	509	508
	4	370	371	510	509
	4	371	372	511	510
	4	372	373	512	511
	4	373	374	513	512
	4	374	375	514	513
	4	375	376	515	514
	4	376	377	516	515
	4	377	378	379	516
	4	379	380	517	516
	4	381	382	383	518
	4	380	381	518	517
	4	383	384	519	518
	4	385	386	520	521
	4	384	385	521	519
	4	386	387	522	520
	4	387	388	523	522
	4	388	389	524	523
	4	389	390	525	524
	4	390	391	526	525
	4	391	392	527	526
	4	392	393	528	527
	4	393	394	529	528
	4	394	395	530	529
	4	395	396	531	530
	4	396	397	532	531
	4	397	398	533	532
	4	398	399	534	533
	4	399	400	535	534
	4	400	401	536	535
	4	401	402	537	536
	4	402	403	538	537
	4	403	404	539	538
	4	404	405	540	539
	4	405	406	541	540
	4	406	407	542	541
	4	407	408	543	542
	4	408	409	544	543
	4	409	410	545	544
	4	410	411	546	545
	4	411	412	547	546
	4	412	413	548	547
	4	413	414	549	548
	4	414	415	550	549
	4	415	416	551	550
	4	416	417	552	551
	4	417	418	553	552
	4	418	419	554	553
	4	419	420	555	554
	4	420	421	556	555
	4	421	422	557	556
	4	422	423	558	557
	4	423	424	559	558
	4	424	425	560	559
	4	425	426	561	560
	4	426	427	562	561
	4	427	428	563	562
	4	428	429	564	563
	4	429	430	565	564
	4	430	431	566	565
	4	431	432	567	566
	4	432	433	568	567
	4	433	434	569	568
	4	434	435	570	569
	4	435	436	571	570
	4	436	437	572	571
	4	437	438	573	572
	4	438	439	574	573
	4	439	440	575	574
	4	440	441	576	575
	4	441	442	577	576
	4	442	443	578	577
	4	443	444	579	578
	4	444	445	580	579
	4	445	446	581	580
	4	446	447	582	581
	4	447	448	583	582
	4	448	449	309	583
	4	309	308	451	583
	4	455	456	584	585
	4	456	457	586	584
	4	457	458	587	586
	4	458	459	588	587
	4	459	460	589	588
	4	460	461	590	589
	4	461	462	591	590
	4	462	463	592	591
	4	463	464	593	592
	4	464	465	594	593
	4	465	466	595	594
	4	466	467	596	595
	4	467	468	597	596
	4	468	469	598	597
	4	469	470	599	598
	4	470	471	600	599
	4	471	472	601	600
	4	472	473	602	601
	4	473	474	603	602
	4	474	475	604	603
	4	475	476	605	604
	4	476	477	606	605
	4	477	478	607	606
	4	478	479	608	607
	4	479	480	609	608
	4	480	481	610	609
	4	481	482	611	610
	4	482	483	612	611
	4	483	484	613	612
	4	484	485	614	613
	4	485	486	615	614
	4	486	487	616	615
	4	487	488	617	616
	4	488	489	618	617
	4	489	490	619	618
	4	490	491	620	619
	4	491	492	621	620
	4	492	493	622	621
	4	493	494	623	622
	4	494	495	624	623
	4	495	496	625	624
	4	496	497	626	625
	4	497	498	627	626
	4	498	499	628	627
	4	499	500	629	628
	4	500	501	630	629
	4	501	502	631	630
	4	502	503	632	631
	4	503	504	633	632
	4	504	505	634	633
	4	505	506	635	634
	4	506	507	636	635
	4	507	508	637	636
	4	508	509	638	637
	4	509	510	639	638
	4	510	511	640	639
	4	511	512	641	640
	4	512	513	642	641
	4	513	514	643	642
	4	514	515	644	643
	4	515	516	517	644
	4	520	522	641	642
	4	518	519	644	517
	4	523	524	639	640
	4	452	454	645	646
	4	453	455	585	647
	4	519	521	643	644
	4	524	525	638	639
	4	525	526	637	638
	4	526	527	636	637
	4	527	528	635	636
	4	528	529	634	635
	4	529	530	633	634
	4	530	531	632	633
	4	531	532	631	632
	4	532	533	630	631
	4	533	534	629	630
	4	534	535	628	629
	4	535	536	627	628
	4	536	537	626	627
	4	537	538	625	626
	4	538	539	624	625
	4	539	540	623	624
	4	540	541	622	623
	4	541	542	621	622
	4	542	543	620	621
	4	543	544	619	620
	4	544	545	618	619
	4	546	547	616	617
	4	547	548	615	616
	4	548	549	614	615
	4	549	550	613	614
	4	550	551	612	613
	4	552	553	610	611
	4	554	555	608	609
	4	556	557	606	607
	4	558	559	604	605
	4	559	560	603	604
	4	560	561	602	603
	4	561	562	601	602
	4	562	563	600	601
	4	563	564	599	600
	4	564	565	598	599
	4	565	566	597	598
	4	566	567	596	597
	4	567	568	595	596
	4	568	569	594	595
	4	570	571	592	593
	4	572	573	590	591
	4	574	575	588	589
	4	576	577	586	587
	4	578	579	585	584
	4	581	582	646	645
	4	582	583	451	646
	4	454	453	647	645
	4	451	450	452	646
	4	576	587	588	575
	4	574	589	590	573
	4	572	591	592	571
	4	570	593	594	569
	4	558	605	606	557
	4	556	607	608	555
	4	554	609	610	553
	4	552	611	612	551
	4	618	545	546	617
	4	520	642	643	521
	4	641	522	523	640
	4	586	577	578	584
	4	585	579	580	647
	4	580	581	645	647
	4	311	312	450	310
CELL_TYPES	568
	9
	9
	9
	9
	9
	9
	9
	9
	9
	9
	9
	9
	9
	9
	9
	9
	9
	9
	9
	9
	9
	9
	9
	9
	9
	9
	9
	9
	9
	9
	9
	9
	9
	9
	9
	9
	9
	9
	9
	9
	9
	9
	9
	9
	9
	9
	9
	9
	9
	9
	9
	9
	9
	9
	9
	9
	9
	9
	9
	9
	9
	9
	9
	9
	9
	9
	9
	9
	9
	9
	9
	9
	9
	9
	9
	9
	9
	9
	9
	9
	9
	9
	9
	9
	9
	9
	9
	9
	9
	9
	9
	9
	9
	9
	9
	9
	9
	9
	9
	9
	9
	9
	9
	9
	9
	9
	9
	9
	9
	9
	9
	9
	9
	9
	9
	9
	9
	9
	9
	9
	9
	9
	9
	9
	9
	9
	9
	9
	9
	9
	9
	9
	9
	9
	9
	9
	9
	9
	9
	9
	9
	9
	9
	9
	9
	9
	9
	9
	9
	9
	9
	9
	9
	9
	9
	9
	9
	9
	9
	9
	9
	9
	9
	9
	9
	9
	9
	9
	9
	9
	9
	9
	9
	9
	9
	9
	9
	9
	9
	9
	9
	9
	9
	9
	9
	9
	9
	9
	9
	9
	9
	9
	9
	9
	9
	9
	9
	9
	9
	9
	9
	9
	9
	9
	9
	9
	9
	9
	9
	9
	9
	9
	9
	9
	9
	9
	9
	9
	9
	9
	9
	9
	9
	9
	9
	9
	9
	9
	9
	9
	9
	9
	9
	9
	9
	9
	9
	9
	9
	9
	9
	9
	9
	9
	9
	9
	9
	9
	9
	9
	9
	9
	9
	9
	9
	9
	9
	9
	9
	9
	9
	9
	9
	9
	9
	9
	9
	9
	9
	9
	9
	9
	9
	9
	9
	9
	9
	9
	9
	9
	9
	9
	9
	9
	9
	9
	9
	9
	9
	9
	9
	9
	9
	9
	9
	9
	9
	9
	9
	9
	9
	9
	9
	9
	9
	9
	9
	9
	9
	9
	9
	9
	9
	9
	9
	9
	9
	9
	9
	9
	9
	9
	9
	9
	9
	9
	9
	9
	9
	9
	9
	9
	9
	9
	9
	9
	9
	9
	9
	9
	9
	9
	9
	9
	9
	9
	9
	9
	9
	9
	9
	9
	9
	9
	9
	9
	9
	9
	9
	9
	9
	9
	9
	9
	9
	9
	9
	9
	9
	9
	9
	9
	9
	9
	9
	9
	9
	9
	9
	9
	9
	9
	9
	9
	9
	9
	9
	9
	9
	9
	9
	9
	9
	9
	9
	9
	9
	9
	9
	9
	9
	9
	9
	9
	9
	9
	9
	9
	9
	9
	9
	9
	9
	9
	9
	9
	9
	9
	9
	9
	9
	9
	9
	9
	9
	9
	9
	9
	9
	9
	9
	9
	9
	9
	9
	9
	9
	9
	9
	9
	9
	9
	9
	9
	9
	9
	9
	9
	9
	9
	9
	9
	9
	9
	9
	9
	9
	9
	9
	9
	9
	9
	9
	9
	9
	9
	9
	9
	9
	9
	9
	9
	9
	9
	9
	9
	9
	9
	9
	9
	9
	9
	9
	9
	9
	9
	9
	9
	9
	9
	9
	9
	9
	9
	9
	9
	9
	9
	9
	9
	9
	9
	9
	9
	9
	9
	9
	9
	9
	9
	9
	9
	9
	9
	9
	9
	9
	9
	9
	9
	9
	9
	9
	9
	9
	9
	9
	9
	9
	9
	9
	9
	9
	9
	9
	9
	9
	9
	9
	9
	9
	9
	9
	9
	9
	9
	9
	9
	9
	9
	9
	9
	9
	9
	9
	9
	9
	9
	9
	9
	9
	9
	9
	9
	9
	9
	9
	9
POINT_DATA	648
SCALARS scalars float
 LOOKUP_TABLE default
 	0.000000e+00
	1.000000e+00
	2.000000e+00
	3.000000e+00
	4.000000e+00
	5.000000e+00
	6.000000e+00
	7.000000e+00
	8.000000e+00
	9.000000e+00
	1.000000e+01
	1.100000e+01
	1.200000e+01
	1.300000e+01
	1.400000e+01
	1.500000e+01
	1.600000e+01
	1.700000e+01
	1.800000e+01
	1.900000e+01
	2.000000e+01
	2.100000e+01
	2.200000e+01
	2.300000e+01
	2.400000e+01
	2.500000e+01
	2.600000e+01
	2.700000e+01
	2.800000e+01
	2.900000e+01
	3.000000e+01
	3.100000e+01
	3.200000e+01
	3.300000e+01
	3.400000e+01
	3.500000e+01
	3.600000e+01
	3.700000e+01
	3.800000e+01
	3.900000e+01
	4.000000e+01
	4.100000e+01
	4.200000e+01
	4.300000e+01
	4.400000e+01
	4.500000e+01
	4.600000e+01
	4.700000e+01
	4.800000e+01
	4.900000e+01
	5.000000e+01
	5.100000e+01
	5.200000e+01
	5.300000e+01
	5.400000e+01
	5.500000e+01
	5.600000e+01
	5.700000e+01
	5.800000e+01
	5.900000e+01
	6.000000e+01
	6.100000e+01
	6.200000e+01
	6.300000e+01
	6.400000e+01
	6.500000e+01
	6.600000e+01
	6.700000e+01
	6.800000e+01
	6.900000e+01
	7.000000e+01
	7.100000e+01
	7.200000e+01
	7.300000e+01
	7.400000e+01
	7.500000e+01
	7.600000e+01
	7.700000e+01
	7.800000e+01
	7.900000e+01
	8.000000e+01
	8.100000e+01
	8.200000e+01
	8.300000e+01
	8.400000e+01
	8.500000e+01
	8.600000e+01
	8.700000e+01
	8.800000e+01
	8.900000e+01
	9.000000e+01
	9.100000e+01
	9.200000e+01
	9.300000e+01
	9.400000e+01
	9.500000e+01
	9.600000e+01
	9.700000e+01
	9.800000e+01
	9.900000e+01
	1.000000e+02
	1.010000e+02
	1.020000e+02
	1.030000e+02
	1.040000e+02
	1.050000e+02
	1.060000e+02
	1.070000e+02
	1.080000e+02
	1.090000e+02
	1.100000e+02
	1.110000e+02
	1.120000e+02
	1.130000e+02
	1.140000e+02
	1.150000e+02
	1.160000e+02
	1.170000e+02
	1.180000e+02
	1.190000e+02
	1.200000e+02
	1.210000e+02
	1.220000e+02
	1.230000e+02
	1.240000e+02
	1.250000e+02
	1.260000e+02
	1.270000e+02
	1.280000e+02
	1.290000e+02
	1.300000e+02
	1.310000e+02
	1.320000e+02
	1.330000e+02
	1.340000e+02
	1.350000e+02
	1.360000e+02
	1.370000e+02
	1.380000e+02
	1.390000e+02
	1.400000e+02
	1.410000e+02
	1.420000e+02
	1.430000e+02
	1.440000e+02
	1.450000e+02
	1.460000e+02
	1.470000e+02
	1.480000e+02
	1.490000e+02
	1.500000e+02
	1.510000e+02
	1.520000e+02
	1.530000e+02
	1.540000e+02
	1.550000e+02
	1.560000e+02
	1.570000e+02
	1.580000e+02
	1.590000e+02
	1.600000e+02
	1.610000e+02
	1.620000e+02
	1.630000e+02
	1.640000e+02
	1.650000e+02
	1.660000e+02
	1.670000e+02
	1.680000e+02
	1.690000e+02
	1.700000e+02
	1.710000e+02
	1.720000e+02
	1.730000e+02
	1.740000e+02
	1.750000e+02
	1.760000e+02
	1.770000e+02
	1.780000e+02
	1.790000e+02
	1.800000e+02
	1.810000e+02
	1.820000e+02
	1.830000e+02
	1.840000e+02
	1.850000e+02
	1.860000e+02
	1.870000e+02
	1.880000e+02
	1.890000e+02
	1.900000e+02
	1.910000e+02
	1.920000e+02
	1.930000e+02
	1.940000e+02
	1.950000e+02
	1.960000e+02
	1.970000e+02
	1.980000e+02
	1.990000e+02
	2.000000e+02
	2.010000e+02
	2.020000e+02
	2.030000e+02
	2.040000e+02
	2.050000e+02
	2.060000e+02
	2.070000e+02
	2.080000e+02
	2.090000e+02
	2.100000e+02
	2.110000e+02
	2.120000e+02
	2.130000e+02
	2.140000e+02
	2.150000e+02
	2.160000e+02
	2.170000e+02
	2.180000e+02
	2.190000e+02
	2.200000e+02
	2.210000e+02
	2.220000e+02
	2.230000e+02
	2.240000e+02
	2.250000e+02
	2.260000e+02
	2.270000e+02
	2.280000e+02
	2.290000e+02
	2.300000e+02
	2.310000e+02
	2.320000e+02
	2.330000e+02
	2.340000e+02
	2.350000e+02
	2.360000e+02
	2.370000e+02
	2.380000e+02
	2.390000e+02
	2.400000e+02
	2.410000e+02
	2.420000e+02
	2.430000e+02
	2.440000e+02
	2.450000e+02
	2.460000e+02
	2.470000e+02
	2.480000e+02
	2.490000e+02
	2.500000e+02
	2.510000e+02
	2.520000e+02
	2.530000e+02
	2.540000e+02
	2.550000e+02
	2.560000e+02
	2.570000e+02
	2.580000e+02
	2.590000e+02
	2.600000e+02
	2.610000e+02
	2.620000e+02
	2.630000e+02
	2.640000e+02
	2.650000e+02
	2.660000e+02
	2.670000e+02
	2.680000e+02
	2.690000e+02
	2.700000e+02
	2.710000e+02
	2.720000e+02
	2.730000e+02
	2.740000e+02
	2.750000e+02
	2.760000e+02
	2.770000e+02
	2.780000e+02
	2.790000e+02
	2.800000e+02
	2.810000e+02
	2.820000e+02
	2.830000e+02
	2.840000e+02
	2.850000e+02
	2.860000e+02
	2.870000e+02
	2.880000e+02
	2.890000e+02
	2.900000e+02
	2.910000e+02
	2.920000e+02
	2.930000e+02
	2.940000e+02
	2.950000e+02
	2.960000e+02
	2.970000e+02
	2.980000e+02
	2.990000e+02
	3.000000e+02
	3.010000e+02
	3.020000e+02
	3.030000e+02
	3.040000e+02
	3.050000e+02
	3.060000e+02
	3.070000e+02
	3.080000e+02
	3.090000e+02
	3.100000e+02
	3.110000e+02
	3.120000e+02
	3.130000e+02
	3.140000e+02
	3.150000e+02
	3.160000e+02
	3.170000e+02
	3.180000e+02
	3.190000e+02
	3.200000e+02
	3.210000e+02
	3.220000e+02
	3.230000e+02
	3.240000e+02
	3.250000e+02
	3.260000e+02
	3.270000e+02
	3.280000e+02
	3.290000e+02
	3.300000e+02
	3.310000e+02
	3.320000e+02
	3.330000e+02
	3.340000e+02
	3.350000e+02
	3.360000e+02
	3.370000e+02
	3.380000e+02
	3.390000e+02
	3.400000e+02
	3.410000e+02
	3.420000e+02
	3.430000e+02
	3.440000e+02
	3.450000e+02
	3.460000e+02
	3.470000e+02
	3.480000e+02
	3.490000e+02
	3.500000e+02
	3.510000e+02
	3.520000e+02
	3.530000e+02
	3.540000e+02
	3.550000e+02
	3.560000e+02
	3.570000e+02
	3.580000e+02
	3.590000e+02
	3.600000e+02
	3.610000e+02
	3.620000e+02
	3.630000e+02
	3.640000e+02
	3.650000e+02
	3.660000e+02
	3.670000e+02
	3.680000e+02
	3.690000e+02
	3.700000e+02
	3.710000e+02
	3.720000e+02
	3.730000e+02
	3.740000e+02
	3.750000e+02
	3.760000e+02
	3.770000e+02
	3.780000e+02
	3.790000e+02
	3.800000e+02
	3.810000e+02
	3.820000e+02
	3.830000e+02
	3.840000e+02
	3.850000e+02
	3.860000e+02
	3.870000e+02
	3.880000e+02
	3.890000e+02
	3.900000e+02
	3.910000e+02
	3.920000e+02
	3.930000e+02
	3.940000e+02
	3.950000e+02
	3.960000e+02
	3.970000e+02
	3.980000e+02
	3.990000e+02
	4.000000e+02
	4.010000e+02
	4.020000e+02
	4.030000e+02
	4.040000e+02
	4.050000e+02
	4.060000e+02
	4.070000e+02
	4.080000e+02
	4.090000e+02
	4.100000e+02
	4.110000e+02
	4.120000e+02
	4.130000e+02
	4.140000e+02
	4.150000e+02
	4.160000e+02
	4.170000e+02
	4.180000e+02
	4.190000e+02
	4.200000e+02
	4.210000e+02
	4.220000e+02
	4.230000e+02
	4.240000e+02
	4.250000e+02
	4.260000e+02
	4.270000e+02
	4.280000e+02
	4.290000e+02
	4.300000e+02
	4.310000e+02
	4.320000e+02
	4.330000e+02
	4.340000e+02
	4.350000e+02
	4.360000e+02
	4.370000e+02
	4.380000e+02
	4.390000e+02
	4.400000e+02
	4.410000e+02
	4.420000e+02
	4.430000e+02
	4.440000e+02
	4.450000e+02
	4.460000e+02
	4.470000e+02
	4.480000e+02
	4.490000e+02
	4.500000e+02
	4.510000e+02
	4.520000e+02
	4.530000e+02
	4.540000e+02
	4.550000e+02
	4.560000e+02
	4.570000e+02
	4.580000e+02
	4.590000e+02
	4.600000e+02
	4.610000e+02
	4.620000e+02
	4.630000e+02
	4.640000e+02
	4.650000e+02
	4.660000e+02
	4.670000e+02
	4.680000e+02
	4.690000e+02
	4.700000e+02
	4.710000e+02
	4.720000e+02
	4.730000e+02
	4.740000e+02
	4.750000e+02
	4.760000e+02
	4.770000e+02
	4.780000e+02
	4.790000e+02
	4.800000e+02
	4.810000e+02
	4.820000e+02
	4.830000e+02
	4.840000e+02
	4.850000e+02
	4.860000e+02
	4.870000e+02
	4.880000e+02
	4.890000e+02
	4.900000e+02
	4.910000e+02
	4.920000e+02
	4.930000e+02
	4.940000e+02
	4.950000e+02
	4.960000e+02
	4.970000e+02
	4.980000e+02
	4.990000e+02
	5.000000e+02
	5.010000e+02
	5.020000e+02
	5.030000e+02
	5.040000e+02
	5.050000e+02
	5.060000e+02
	5.070000e+02
	5.080000e+02
	5.090000e+02
	5.100000e+02
	5.110000e+02
	5.120000e+02
	5.130000e+02
	5.140000e+02
	5.150000e+02
	5.160000e+02
	5.170000e+02
	5.180000e+02
	5.190000e+02
	5.200000e+02
	5.210000e+02
	5.220000e+02
	5.230000e+02
	5.240000e+02
	5.250000e+02
	5.260000e+02
	5.270000e+02
	5.280000e+02
	5.290000e+02
	5.300000e+02
	5.310000e+02
	5.320000e+02
	5.330000e+02
	5.340000e+02
	5.350000e+02
	5.360000e+02
	5.370000e+02
	5.380000e+02
	5.390000e+02
	5.400000e+02
	5.410000e+02
	5.420000e+02
	5.430000e+02
	5.440000e+02
	5.450000e+02
	5.460000e+02
	5.470000e+02
	5.480000e+02
	5.490000e+02
	5.500000e+02
	5.510000e+02
	5.520000e+02
	5.530000e+02
	5.540000e+02
	5.550000e+02
	5.560000e+02
	5.570000e+02
	5.580000e+02
	5.590000e+02
	5.600000e+02
	5.610000e+02
	5.620000e+02
	5.630000e+02
	5.640000e+02
	5.650000e+02
	5.660000e+02
	5.670000e+02
	5.680000e+02
	5.690000e+02
	5.700000e+02
	5.710000e+02
	5.720000e+02
	5.730000e+02
	5.740000e+02
	5.750000e+02
	5.760000e+02
	5.770000e+02
	5.780000e+02
	5.790000e+02
	5.800000e+02
	5.810000e+02
	5.820000e+02
	5.830000e+02
	5.840000e+02
	5.850000e+02
	5.860000e+02
	5.870000e+02
	5.880000e+02
	5.890000e+02
	5.900000e+02
	5.910000e+02
	5.920000e+02
	5.930000e+02
	5.940000e+02
	5.950000e+02
	5.960000e+02
	5.970000e+02
	5.980000e+02
	5.990000e+02
	6.000000e+02
	6.010000e+02
	6.020000e+02
	6.030000e+02
	6.040000e+02
	6.050000e+02
	6.060000e+02
	6.070000e+02
	6.080000e+02
	6.090000e+02
	6.100000e+02
	6.110000e+02
	6.120000e+02
	6.130000e+02
	6.140000e+02
	6.150000e+02
	6.160000e+02
	6.170000e+02
	6.180000e+02
	6.190000e+02
	6.200000e+02
	6.210000e+02
	6.220000e+02
	6.230000e+02
	6.240000e+02
	6.250000e+02
	6.260000e+02
	6.270000e+02
	6.280000e+02
	6.290000e+02
	6.300000e+02
	6.310000e+02
	6.320000e+02
	6.330000e+02
	6.340000e+02
	6.350000e+02
	6.360000e+02
	6.370000e+02
	6.380000e+02
	6.390000e+02
	6.400000e+02
	6.410000e+02
	6.420000e+02
	6.430000e+02
	6.440000e+02
	6.450000e+02
	6.460000e+02
	6.470000e+02
VECTORS displacement float
	0.000000e+00	0.000000e+00	0.000000e+00
	0.000000e+00	0.000000e+00	0.000000e+00
	4.375205e-02	-1.985971e-02	0.000000e+00
	6.867174e-02	-4.431028e-02	0.000000e+00
	0.000000e+00	0.000000e+00	0.000000e+00
	2.830449e-02	-7.507884e-03	0.000000e+00
	0.000000e+00	0.000000e+00	0.000000e+00
	1.389506e-02	-1.397764e-03	0.000000e+00
	0.000000e+00	0.000000e+00	0.000000e+00
	1.168485e-05	4.839925e-04	0.000000e+00
	0.000000e+00	0.000000e+00	0.000000e+00
	-1.387335e-02	-1.388286e-03	0.000000e+00
	0.000000e+00	0.000000e+00	0.000000e+00
	-2.829181e-02	-7.490950e-03	0.000000e+00
	0.000000e+00	0.000000e+00	0.000000e+00
	-4.375422e-02	-1.984318e-02	0.000000e+00
	0.000000e+00	0.000000e+00	0.000000e+00
	-6.867216e-02	-4.429559e-02	0.000000e+00
	-1.333098e-01	-7.766383e-02	0.000000e+00
	-9.535535e-02	-5.486290e-02	0.000000e+00
	-1.978363e-01	-1.259856e-01	0.000000e+00
	-1.453434e-01	-1.027929e-01	0.000000e+00
	-2.625476e-01	-1.905501e-01	0.000000e+00
	-1.942195e-01	-1.675591e-01	0.000000e+00
	-3.267749e-01	-2.723430e-01	0.000000e+00
	-2.422089e-01	-2.495728e-01	0.000000e+00
	-3.902267e-01	-3.712759e-01	0.000000e+00
	-2.894097e-01	-3.488146e-01	0.000000e+00
	-4.527694e-01	-4.871236e-01	0.000000e+00
	-3.359046e-01	-4.650236e-01	0.000000e+00
	-5.143586e-01	-6.196161e-01	0.000000e+00
	-3.817201e-01	-5.978977e-01	0.000000e+00
	-5.749814e-01	-7.684841e-01	0.000000e+00
	-4.268711e-01	-7.471454e-01	0.000000e+00
	-6.346351e-01	-9.334645e-01	0.000000e+00
	-4.713357e-01	-9.124971e-01	0.000000e+00
	-6.933189e-01	-1.114296e+00	0.000000e+00
	-5.150911e-01	-1.093692e+00	0.000000e+00
	-7.510324e-01	-1.310719e+00	0.000000e+00
	-5.581251e-01	-1.290472e+00	0.000000e+00
	-8.077756e-01	-1.522472e+00	0.000000e+00
	-6.004341e-01	-1.502580e+00	0.000000e+00
	-8.635485e-01	-1.749295e+00	0.000000e+00
	-6.420177e-01	-1.729756e+00	0.000000e+00
	-9.183513e-01	-1.990929e+00	0.000000e+00
	-6.828767e-01	-1.971741e+00	0.000000e+00
	-9.721839e-01	-2.247112e+00	0.000000e+00
	-7.230116e-01	-2.228276e+00	0.000000e+00
	-1.025047e+00	-2.517586e+00	0.000000e+00
	-7.624229e-01	-2.499101e+00	0.000000e+00
	-1.076939e+00	-2.802090e+00	0.000000e+00
	-8.011110e-01	-2.783956e+00	0.000000e+00
	-1.127862e+00	-3.100364e+00	0.000000e+00
	-8.390757e-01	-3.082581e+00	0.000000e+00
	-1.177815e+00	-3.412150e+00	0.000000e+00
	-8.763174e-01	-3.394717e+00	0.000000e+00
	-1.226797e+00	-3.737186e+00	0.000000e+00
	-9.128358e-01	-3.720105e+00	0.000000e+00
	-1.274810e+00	-4.075214e+00	0.000000e+00
	-9.486311e-01	-4.058483e+00	0.000000e+00
	-1.321853e+00	-4.425973e+00	0.000000e+00
	-9.837033e-01	-4.409592e+00	0.000000e+00
	-1.367926e+00	-4.789204e+00	0.000000e+00
	-1.018052e+00	-4.773173e+00	0.000000e+00
	-1.413029e+00	-5.164646e+00	0.000000e+00
	-1.051678e+00	-5.148965e+00	0.000000e+00
	-1.457162e+00	-5.552040e+00	0.000000e+00
	-1.084581e+00	-5.536709e+00	0.000000e+00
	-1.500325e+00	-5.951126e+00	0.000000e+00
	-1.116760e+00	-5.936145e+00	0.000000e+00
	-1.542518e+00	-6.361645e+00	0.000000e+00
	-1.148217e+00	-6.347013e+00	0.000000e+00
	-1.583741e+00	-6.783335e+00	0.000000e+00
	-1.178950e+00	-6.769054e+00	0.000000e+00
	-1.623994e+00	-7.215939e+00	0.000000e+00
	-1.208960e+00	-7.202007e+00	0.000000e+00
	-1.663277e+00	-7.659195e+00	0.000000e+00
	-1.238247e+00	-7.645612e+00	0.000000e+00
	-1.701591e+00	-8.112844e+00	0.000000e+00
	-1.266811e+00	-8.099611e+00	0.000000e+00
	-1.738934e+00	-8.576626e+00	0.000000e+00
	-1.294652e+00	-8.563742e+00	0.000000e+00
	-1.775307e+00	-9.050282e+00	0.000000e+00
	-1.321770e+00	-9.037746e+00	0.000000e+00
	-1.810711e+00	-9.533551e+00	0.000000e+00
	-1.348164e+00	-9.521364e+00	0.000000e+00
	-1.845144e+00	-1.002617e+01	0.000000e+00
	-1.373835e+00	-1.001434e+01	0.000000e+00
	-1.878608e+00	-1.052789e+01	0.000000e+00
	-1.398783e+00	-1.051640e+01	0.000000e+00
	-1.911101e+00	-1.103844e+01	0.000000e+00
	-1.423008e+00	-1.102730e+01	0.000000e+00
	-1.942625e+00	-1.155756e+01	0.000000e+00
	-1.446510e+00	-1.154677e+01	0.000000e+00
	-1.973178e+00	-1.208500e+01	0.000000e+00
	-1.469289e+00	-1.207456e+01	0.000000e+00
	-2.002762e+00	-1.262050e+01	0.000000e+00
	-1.491344e+00	-1.261040e+01	0.000000e+00
	-2.031376e+00	-1.316379e+01	0.000000e+00
	-1.512677e+00	-1.315404e+01	0.000000e+00
	-2.059019e+00	-1.371461e+01	0.000000e+00
	-1.533286e+00	-1.370521e+01	0.000000e+00
	-2.085693e+00	-1.427271e+01	0.000000e+00
	-1.553172e+00	-1.426365e+01	0.000000e+00
	-2.111397e+00	-1.483782e+01	0.000000e+00
	-1.572335e+00	-1.482912e+01	0.000000e+00
	-2.136131e+00	-1.540969e+01	0.000000e+00
	-1.590775e+00	-1.540133e+01	0.000000e+00
	-2.159895e+00	-1.598805e+01	0.000000e+00
	-1.608492e+00	-1.598004e+01	0.000000e+00
	-2.182689e+00	-1.657265e+01	0.000000e+00
	-1.625485e+00	-1.656499e+01	0.000000e+00
	-2.204513e+00	-1.716323e+01	0.000000e+00
	-1.641756e+00	-1.715591e+01	0.000000e+00
	-2.225367e+00	-1.775952e+01	0.000000e+00
	-1.657303e+00	-1.775255e+01	0.000000e+00
	-2.245251e+00	-1.836127e+01	0.000000e+00
	-1.672127e+00	-1.835465e+01	0.000000e+00
	-2.264165e+00	-1.896821e+01	0.000000e+00
	-1.686228e+00	-1.896194e+01	0.000000e+00
	-2.282109e+00	-1.958009e+01	0.000000e+00
	-1.699606e+00	-1.957417e+01	0.000000e+00
	-2.299084e+00	-2.019665e+01	0.000000e+00
	-1.712261e+00	-2.019107e+01	0.000000e+00
	-2.315088e+00	-2.081763e+01	0.000000e+00
	-1.724193e+00	-2.081239e+01	0.000000e+00
	-2.330124e+00	-2.144276e+01	0.000000e+00
	-1.735402e+00	-2.143787e+01	0.000000e+00
	-2.344191e+00	-2.207179e+01	0.000000e+00
	-1.745888e+00	-2.206725e+01	0.000000e+00
	-2.357290e+00	-2.270446e+01	0.000000e+00
	-1.755652e+00	-2.270026e+01	0.000000e+00
	-2.369422e+00	-2.334051e+01	0.000000e+00
	-1.764694e+00	-2.333666e+01	0.000000e+00
	-2.380586e+00	-2.397969e+01	0.000000e+00
	-1.773012e+00	-2.397618e+01	0.000000e+00
	-2.390779e+00	-2.462173e+01	0.000000e+00
	-1.780607e+00	-2.461858e+01	0.000000e+00
	-2.399997e+00	-2.526640e+01	0.000000e+00
	-1.787480e+00	-2.526360e+01	0.000000e+00
	-2.408222e+00	-2.591344e+01	0.000000e+00
	-1.793656e+00	-2.591099e+01	0.000000e+00
	-2.415424e+00	-2.656258e+01	0.000000e+00
	-1.799043e+00	-2.656050e+01	0.000000e+00
	-2.421550e+00	-2.721355e+01	0.000000e+00
	-1.803956e+00	-2.721186e+01	0.000000e+00
	-2.426526e+00	-2.786604e+01	0.000000e+00
	-1.808761e+00	-2.786474e+01	0.000000e+00
	-2.430263e+00	-2.851963e+01	0.000000e+00
	-1.813412e+00	-2.851874e+01	0.000000e+00
	-2.432709e+00	-2.917382e+01	0.000000e+00
	-1.817512e+00	-2.917335e+01	0.000000e+00
	-2.433939e+00	-2.982799e+01	0.000000e+00
	-1.820756e+00	-2.982789e+01	0.000000e+00
	-2.434270e+00	-3.048159e+01	0.000000e+00
	-1.823150e+00	-3.048171e+01	0.000000e+00
	-2.434277e+00	-3.113448e+01	0.000000e+00
	-1.825116e+00	-3.113448e+01	0.000000e+00
	-1.216576e+00	-3.113474e+01	0.000000e+00
	-1.213278e+00	-3.048217e+01	0.000000e+00
	-6.086784e-01	-3.113583e+01	0.000000e+00
	-6.050558e-01	-3.048321e+01	0.000000e+00
	-9.947840e-04	-3.113828e+01	0.000000e+00
	1.882378e-03	-3.048497e+01	0.000000e+00
	6.071594e-01	-3.114263e+01	0.000000e+00
	6.085453e-01	-3.048750e+01	0.000000e+00
	1.216870e+00	-3.114978e+01	0.000000e+00
	1.216483e+00	-3.049052e+01	0.000000e+00
	1.830475e+00	-3.116158e+01	0.000000e+00
	1.828441e+00	-3.049274e+01	0.000000e+00
	2.459164e+00	-3.118154e+01	0.000000e+00
	2.450399e+00	-3.049263e+01	0.000000e+00
	2.443491e+00	-2.983142e+01	0.000000e+00
	1.829463e+00	-2.982995e+01	0.000000e+00
	2.437923e+00	-2.917387e+01	0.000000e+00
	1.828511e+00	-2.917265e+01	0.000000e+00
	2.432931e+00	-2.851869e+01	0.000000e+00
	1.826465e+00	-2.851730e+01	0.000000e+00
	2.427743e+00	-2.786498e+01	0.000000e+00
	1.823479e+00	-2.786340e+01	0.000000e+00
	2.422007e+00	-2.721271e+01	0.000000e+00
	1.819656e+00	-2.721087e+01	0.000000e+00
	2.415522e+00	-2.656201e+01	0.000000e+00
	1.814957e+00	-2.655986e+01	0.000000e+00
	2.408180e+00	-2.591309e+01	0.000000e+00
	1.809501e+00	-2.591061e+01	0.000000e+00
	2.399919e+00	-2.526621e+01	0.000000e+00
	1.803321e+00	-2.526339e+01	0.000000e+00
	2.390708e+00	-2.462164e+01	0.000000e+00
	1.796411e+00	-2.461848e+01	0.000000e+00
	2.380534e+00	-2.397965e+01	0.000000e+00
	1.788766e+00	-2.397615e+01	0.000000e+00
	2.369389e+00	-2.334050e+01	0.000000e+00
	1.780386e+00	-2.333666e+01	0.000000e+00
	2.357271e+00	-2.270446e+01	0.000000e+00
	1.771272e+00	-2.270028e+01	0.000000e+00
	2.344182e+00	-2.207179e+01	0.000000e+00
	1.761427e+00	-2.206727e+01	0.000000e+00
	2.330120e+00	-2.144276e+01	0.000000e+00
	1.750850e+00	-2.143791e+01	0.000000e+00
	2.315087e+00	-2.081763e+01	0.000000e+00
	1.739543e+00	-2.081243e+01	0.000000e+00
	2.299083e+00	-2.019665e+01	0.000000e+00
	1.727506e+00	-2.019112e+01	0.000000e+00
	2.282109e+00	-1.958010e+01	0.000000e+00
	1.714739e+00	-1.957422e+01	0.000000e+00
	2.264165e+00	-1.896821e+01	0.000000e+00
	1.701242e+00	-1.896200e+01	0.000000e+00
	2.245251e+00	-1.836127e+01	0.000000e+00
	1.687016e+00	-1.835472e+01	0.000000e+00
	2.225367e+00	-1.775952e+01	0.000000e+00
	1.672060e+00	-1.775263e+01	0.000000e+00
	2.204513e+00	-1.716323e+01	0.000000e+00
	1.656374e+00	-1.715600e+01	0.000000e+00
	2.182689e+00	-1.657265e+01	0.000000e+00
	1.639959e+00	-1.656509e+01	0.000000e+00
	2.159895e+00	-1.598805e+01	0.000000e+00
	1.622815e+00	-1.598015e+01	0.000000e+00
	2.136131e+00	-1.540969e+01	0.000000e+00
	1.604941e+00	-1.540144e+01	0.000000e+00
	2.111397e+00	-1.483782e+01	0.000000e+00
	1.586337e+00	-1.482924e+01	0.000000e+00
	2.085693e+00	-1.427271e+01	0.000000e+00
	1.567004e+00	-1.426378e+01	0.000000e+00
	2.059020e+00	-1.371461e+01	0.000000e+00
	1.546941e+00	-1.370535e+01	0.000000e+00
	2.031376e+00	-1.316379e+01	0.000000e+00
	1.526148e+00	-1.315418e+01	0.000000e+00
	2.002762e+00	-1.262050e+01	0.000000e+00
	1.504626e+00	-1.261056e+01	0.000000e+00
	1.973178e+00	-1.208500e+01	0.000000e+00
	1.482375e+00	-1.207472e+01	0.000000e+00
	1.942625e+00	-1.155756e+01	0.000000e+00
	1.459394e+00	-1.154695e+01	0.000000e+00
	1.911101e+00	-1.103844e+01	0.000000e+00
	1.435683e+00	-1.102748e+01	0.000000e+00
	1.878608e+00	-1.052789e+01	0.000000e+00
	1.411243e+00	-1.051659e+01	0.000000e+00
	1.845144e+00	-1.002617e+01	0.000000e+00
	1.386073e+00	-1.001454e+01	0.000000e+00
	1.810711e+00	-9.533551e+00	0.000000e+00
	1.360174e+00	-9.521573e+00	0.000000e+00
	1.775307e+00	-9.050282e+00	0.000000e+00
	1.333545e+00	-9.037965e+00	0.000000e+00
	1.738934e+00	-8.576626e+00	0.000000e+00
	1.306186e+00	-8.563969e+00	0.000000e+00
	1.701591e+00	-8.112844e+00	0.000000e+00
	1.278098e+00	-8.099847e+00	0.000000e+00
	1.663278e+00	-7.659195e+00	0.000000e+00
	1.249280e+00	-7.645858e+00	0.000000e+00
	1.623994e+00	-7.215939e+00	0.000000e+00
	1.219733e+00	-7.202261e+00	0.000000e+00
	1.583741e+00	-6.783335e+00	0.000000e+00
	1.189456e+00	-6.769318e+00	0.000000e+00
	1.542518e+00	-6.361645e+00	0.000000e+00
	1.158450e+00	-6.347286e+00	0.000000e+00
	1.500325e+00	-5.951126e+00	0.000000e+00
	1.126714e+00	-5.936427e+00	0.000000e+00
	1.457162e+00	-5.552040e+00	0.000000e+00
	1.094249e+00	-5.537001e+00	0.000000e+00
	1.413029e+00	-5.164646e+00	0.000000e+00
	1.061054e+00	-5.149266e+00	0.000000e+00
	1.367926e+00	-4.789204e+00	0.000000e+00
	1.027129e+00	-4.773483e+00	0.000000e+00
	1.321853e+00	-4.425973e+00	0.000000e+00
	9.924748e-01	-4.409912e+00	0.000000e+00
	1.274810e+00	-4.075214e+00	0.000000e+00
	9.570911e-01	-4.058812e+00	0.000000e+00
	1.226797e+00	-3.737186e+00	0.000000e+00
	9.209778e-01	-3.720443e+00	0.000000e+00
	1.177815e+00	-3.412150e+00	0.000000e+00
	8.841349e-01	-3.395066e+00	0.000000e+00
	1.127862e+00	-3.100365e+00	0.000000e+00
	8.465624e-01	-3.082939e+00	0.000000e+00
	1.076939e+00	-2.802090e+00	0.000000e+00
	8.082604e-01	-2.784323e+00	0.000000e+00
	1.025047e+00	-2.517586e+00	0.000000e+00
	7.692288e-01	-2.499478e+00	0.000000e+00
	9.721841e-01	-2.247112e+00	0.000000e+00
	7.294678e-01	-2.228663e+00	0.000000e+00
	9.183516e-01	-1.990929e+00	0.000000e+00
	6.889771e-01	-1.972138e+00	0.000000e+00
	8.635493e-01	-1.749296e+00	0.000000e+00
	6.477572e-01	-1.730164e+00	0.000000e+00
	8.077773e-01	-1.522473e+00	0.000000e+00
	6.058081e-01	-1.502999e+00	0.000000e+00
	7.510355e-01	-1.310719e+00	0.000000e+00
	5.631309e-01	-1.290904e+00	0.000000e+00
	6.933240e-01	-1.114294e+00	0.000000e+00
	5.197292e-01	-1.094137e+00	0.000000e+00
	6.346421e-01	-9.334570e-01	0.000000e+00
	4.756160e-01	-9.129597e-01	0.000000e+00
	5.749886e-01	-7.684686e-01	0.000000e+00
	4.307772e-01	-7.476325e-01	0.000000e+00
	5.143629e-01	-6.195933e-01	0.000000e+00
	3.851518e-01	-5.983812e-01	0.000000e+00
	4.527685e-01	-4.870988e-01	0.000000e+00
	3.387116e-01	-4.654484e-01	0.000000e+00
	3.902201e-01	-3.712555e-01	0.000000e+00
	2.914850e-01	-3.491609e-01	0.000000e+00
	3.267640e-01	-2.723341e-01	0.000000e+00
	2.435424e-01	-2.498491e-01	0.000000e+00
	2.625355e-01	-1.905541e-01	0.000000e+00
	1.949433e-01	-1.677702e-01	0.000000e+00
	1.978265e-01	-1.260006e-01	0.000000e+00
	1.456487e-01	-1.029280e-01	0.000000e+00
	1.333058e-01	-7.768240e-02	0.000000e+00
	9.543493e-02	-5.492482e-02	0.000000e+00
	1.073534e-04	-2.529535e-02	0.000000e+00
	3.008482e-02	-2.837222e-02	0.000000e+00
	-2.986637e-02	-2.831722e-02	0.000000e+00
	-6.094415e-02	-3.781230e-02	0.000000e+00
	-9.475797e-02	-8.587547e-02	0.000000e+00
	-1.275867e-01	-1.509334e-01	0.000000e+00
	-1.594560e-01	-2.333027e-01	0.000000e+00
	-1.905289e-01	-3.328524e-01	0.000000e+00
	-2.210884e-01	-4.493675e-01	0.000000e+00
	-2.512134e-01	-5.825394e-01	0.000000e+00
	-2.809696e-01	-7.320692e-01	0.000000e+00
	-3.103153e-01	-8.976900e-01	0.000000e+00
	-3.392087e-01	-1.079145e+00	0.000000e+00
	-3.676283e-01	-1.276179e+00	0.000000e+00
	-3.955670e-01	-1.488538e+00	0.000000e+00
	-4.230243e-01	-1.715963e+00	0.000000e+00
	-4.500013e-01	-1.958197e+00	0.000000e+00
	-4.764993e-01	-2.214979e+00	0.000000e+00
	-5.025191e-01	-2.486052e+00	0.000000e+00
	-5.280611e-01	-2.771155e+00	0.000000e+00
	-5.531256e-01	-3.070028e+00	0.000000e+00
	-5.777125e-01	-3.382412e+00	0.000000e+00
	-6.018220e-01	-3.708047e+00	0.000000e+00
	-6.254539e-01	-4.046672e+00	0.000000e+00
	-6.486087e-01	-4.398029e+00	0.000000e+00
	-6.712859e-01	-4.761857e+00	0.000000e+00
	-6.934855e-01	-5.137897e+00	0.000000e+00
	-7.152080e-01	-5.525888e+00	0.000000e+00
	-7.364530e-01	-5.925571e+00	0.000000e+00
	-7.572203e-01	-6.336686e+00	0.000000e+00
	-7.775106e-01	-6.758973e+00	0.000000e+00
	-7.973233e-01	-7.192173e+00	0.000000e+00
	-8.166583e-01	-7.636025e+00	0.000000e+00
	-8.355163e-01	-8.090270e+00	0.000000e+00
	-8.538968e-01	-8.554648e+00	0.000000e+00
	-8.717998e-01	-9.028899e+00	0.000000e+00
	-8.892254e-01	-9.512763e+00	0.000000e+00
	-9.061735e-01	-1.000598e+01	0.000000e+00
	-9.226442e-01	-1.050829e+01	0.000000e+00
	-9.386372e-01	-1.101944e+01	0.000000e+00
	-9.541533e-01	-1.153916e+01	0.000000e+00
	-9.691917e-01	-1.206719e+01	0.000000e+00
	-9.837525e-01	-1.260328e+01	0.000000e+00
	-9.978364e-01	-1.314716e+01	0.000000e+00
	-1.011443e+00	-1.369858e+01	0.000000e+00
	-1.024571e+00	-1.425727e+01	0.000000e+00
	-1.037223e+00	-1.482297e+01	0.000000e+00
	-1.049397e+00	-1.539544e+01	0.000000e+00
	-1.061093e+00	-1.597439e+01	0.000000e+00
	-1.072312e+00	-1.655959e+01	0.000000e+00
	-1.083054e+00	-1.715075e+01	0.000000e+00
	-1.093318e+00	-1.774764e+01	0.000000e+00
	-1.103105e+00	-1.834998e+01	0.000000e+00
	-1.112414e+00	-1.895752e+01	0.000000e+00
	-1.121246e+00	-1.956999e+01	0.000000e+00
	-1.129601e+00	-2.018714e+01	0.000000e+00
	-1.137477e+00	-2.080870e+01	0.000000e+00
	-1.144877e+00	-2.143443e+01	0.000000e+00
	-1.151798e+00	-2.206405e+01	0.000000e+00
	-1.158243e+00	-2.269731e+01	0.000000e+00
	-1.164210e+00	-2.333395e+01	0.000000e+00
	-1.169703e+00	-2.397371e+01	0.000000e+00
	-1.174730e+00	-2.461635e+01	0.000000e+00
	-1.179328e+00	-2.526161e+01	0.000000e+00
	-1.183454e+00	-2.590924e+01	0.000000e+00
	-1.187230e+00	-2.655899e+01	0.000000e+00
	-1.191198e+00	-2.721058e+01	0.000000e+00
	-1.195799e+00	-2.786371e+01	0.000000e+00
	-1.200850e+00	-2.851800e+01	0.000000e+00
	-1.205736e+00	-2.917298e+01	0.000000e+00
	-1.209946e+00	-2.982797e+01	0.000000e+00
	-6.012350e-01	-2.982838e+01	0.000000e+00
	5.424393e-03	-2.982905e+01	0.000000e+00
	6.113873e-01	-2.982976e+01	0.000000e+00
	1.218615e+00	-2.983011e+01	0.000000e+00
	1.220934e+00	-2.917234e+01	0.000000e+00
	1.221868e+00	-2.851668e+01	0.000000e+00
	1.221445e+00	-2.786248e+01	0.000000e+00
	1.219989e+00	-2.720968e+01	0.000000e+00
	1.217282e+00	-2.655840e+01	0.000000e+00
	1.213809e+00	-2.590890e+01	0.000000e+00
	1.209749e+00	-2.526143e+01	0.000000e+00
	1.205155e+00	-2.461626e+01	0.000000e+00
	1.200042e+00	-2.397368e+01	0.000000e+00
	1.194424e+00	-2.333395e+01	0.000000e+00
	1.188307e+00	-2.269733e+01	0.000000e+00
	1.181697e+00	-2.206408e+01	0.000000e+00
	1.174596e+00	-2.143447e+01	0.000000e+00
	1.167004e+00	-2.080875e+01	0.000000e+00
	1.158922e+00	-2.018720e+01	0.000000e+00
	1.150351e+00	-1.957006e+01	0.000000e+00
	1.141290e+00	-1.895760e+01	0.000000e+00
	1.131739e+00	-1.835007e+01	0.000000e+00
	1.121699e+00	-1.774774e+01	0.000000e+00
	1.111168e+00	-1.715087e+01	0.000000e+00
	1.100148e+00	-1.655971e+01	0.000000e+00
	1.088638e+00	-1.597453e+01	0.000000e+00
	1.076638e+00	-1.539558e+01	0.000000e+00
	1.064148e+00	-1.482313e+01	0.000000e+00
	1.051169e+00	-1.425743e+01	0.000000e+00
	1.037700e+00	-1.369875e+01	0.000000e+00
	1.023741e+00	-1.314735e+01	0.000000e+00
	1.009292e+00	-1.260348e+01	0.000000e+00
	9.943531e-01	-1.206740e+01	0.000000e+00
	9.789246e-01	-1.153938e+01	0.000000e+00
	9.630063e-01	-1.101967e+01	0.000000e+00
	9.465982e-01	-1.050854e+01	0.000000e+00
	9.297004e-01	-1.000624e+01	0.000000e+00
	9.123127e-01	-9.513033e+00	0.000000e+00
	8.944352e-01	-9.029180e+00	0.000000e+00
	8.760679e-01	-8.554940e+00	0.000000e+00
	8.572108e-01	-8.090574e+00	0.000000e+00
	8.378639e-01	-7.636341e+00	0.000000e+00
	8.180272e-01	-7.192500e+00	0.000000e+00
	7.977007e-01	-6.759313e+00	0.000000e+00
	7.768844e-01	-6.337037e+00	0.000000e+00
	7.555783e-01	-5.925934e+00	0.000000e+00
	7.337824e-01	-5.526263e+00	0.000000e+00
	7.114967e-01	-5.138283e+00	0.000000e+00
	6.887213e-01	-4.762256e+00	0.000000e+00
	6.654560e-01	-4.398440e+00	0.000000e+00
	6.417009e-01	-4.047095e+00	0.000000e+00
	6.174559e-01	-3.708482e+00	0.000000e+00
	5.927212e-01	-3.382860e+00	0.000000e+00
	5.674967e-01	-3.070488e+00	0.000000e+00
	5.417824e-01	-2.771627e+00	0.000000e+00
	5.155783e-01	-2.486537e+00	0.000000e+00
	4.888845e-01	-2.215477e+00	0.000000e+00
	4.617011e-01	-1.958707e+00	0.000000e+00
	4.340284e-01	-1.716487e+00	0.000000e+00
	4.058679e-01	-1.489076e+00	0.000000e+00
	3.772234e-01	-1.276735e+00	0.000000e+00
	3.481076e-01	-1.079723e+00	0.000000e+00
	3.185254e-01	-8.982989e-01	0.000000e+00
	2.884238e-01	-7.327021e-01	0.000000e+00
	2.577203e-01	-5.831424e-01	0.000000e+00
	2.263611e-01	-4.498869e-01	0.000000e+00
	1.944114e-01	-3.332835e-01	0.000000e+00
	1.619464e-01	-2.336531e-01	0.000000e+00
	1.289610e-01	-1.512150e-01	0.000000e+00
	9.536561e-02	-8.606712e-02	0.000000e+00
	6.112983e-02	-3.790400e-02	0.000000e+00
	-4.648475e-02	-7.557154e-02	0.000000e+00
	4.002487e-04	-7.221555e-02	0.000000e+00
	-6.276641e-02	-1.408950e-01	0.000000e+00
	-9.336516e-02	-3.233670e-01	0.000000e+00
	-7.841129e-02	-2.235805e-01	0.000000e+00
	-1.081308e-01	-4.401131e-01	0.000000e+00
	-1.226756e-01	-5.734859e-01	0.000000e+00
	-1.371748e-01	-7.231943e-01	0.000000e+00
	-1.515226e-01	-8.889784e-01	0.000000e+00
	-1.656674e-01	-1.070587e+00	0.000000e+00
	-1.795823e-01	-1.267770e+00	0.000000e+00
	-1.932581e-01	-1.480275e+00	0.000000e+00
	-2.066948e-01	-1.707847e+00	0.000000e+00
	-2.198941e-01	-1.950226e+00	0.000000e+00
	-2.328578e-01	-2.207154e+00	0.000000e+00
	-2.455869e-01	-2.478372e+00	0.000000e+00
	-2.580820e-01	-2.763620e+00	0.000000e+00
	-2.703434e-01	-3.062638e+00	0.000000e+00
	-2.823711e-01	-3.375167e+00	0.000000e+00
	-2.941652e-01	-3.700946e+00	0.000000e+00
	-3.057256e-01	-4.039717e+00	0.000000e+00
	-3.170527e-01	-4.391218e+00	0.000000e+00
	-3.281461e-01	-4.755191e+00	0.000000e+00
	-3.390060e-01	-5.131376e+00	0.000000e+00
	-3.496323e-01	-5.519512e+00	0.000000e+00
	-3.600251e-01	-5.919339e+00	0.000000e+00
	-3.701843e-01	-6.330599e+00	0.000000e+00
	-3.801100e-01	-6.753031e+00	0.000000e+00
	-3.898022e-01	-7.186375e+00	0.000000e+00
	-3.992607e-01	-7.630372e+00	0.000000e+00
	-4.084858e-01	-8.084762e+00	0.000000e+00
	-4.174773e-01	-8.549284e+00	0.000000e+00
	-4.262352e-01	-9.023679e+00	0.000000e+00
	-4.347596e-01	-9.507688e+00	0.000000e+00
	-4.430505e-01	-1.000105e+01	0.000000e+00
	-4.511077e-01	-1.050351e+01	0.000000e+00
	-4.589314e-01	-1.101479e+01	0.000000e+00
	-4.665216e-01	-1.153466e+01	0.000000e+00
	-4.738782e-01	-1.206284e+01	0.000000e+00
	-4.810012e-01	-1.259907e+01	0.000000e+00
	-4.878908e-01	-1.314309e+01	0.000000e+00
	-4.945468e-01	-1.369465e+01	0.000000e+00
	-5.009691e-01	-1.425349e+01	0.000000e+00
	-5.071581e-01	-1.481934e+01	0.000000e+00
	-5.131134e-01	-1.539195e+01	0.000000e+00
	-5.188351e-01	-1.597105e+01	0.000000e+00
	-5.243234e-01	-1.655638e+01	0.000000e+00
	-5.295782e-01	-1.714770e+01	0.000000e+00
	-5.345993e-01	-1.774472e+01	0.000000e+00
	-5.393869e-01	-1.834721e+01	0.000000e+00
	-5.439408e-01	-1.895489e+01	0.000000e+00
	-5.482611e-01	-1.956751e+01	0.000000e+00
	-5.523476e-01	-2.018480e+01	0.000000e+00
	-5.562003e-01	-2.080651e+01	0.000000e+00
	-5.598190e-01	-2.143238e+01	0.000000e+00
	-5.632037e-01	-2.206214e+01	0.000000e+00
	-5.663552e-01	-2.269554e+01	0.000000e+00
	-5.692756e-01	-2.333232e+01	0.000000e+00
	-5.719721e-01	-2.397223e+01	0.000000e+00
	-5.744700e-01	-2.461500e+01	0.000000e+00
	-5.767770e-01	-2.526039e+01	0.000000e+00
	-5.789004e-01	-2.590814e+01	0.000000e+00
	-5.811136e-01	-2.655799e+01	0.000000e+00
	-5.839752e-01	-2.720967e+01	0.000000e+00
	-5.878858e-01	-2.786291e+01	0.000000e+00
	-5.925517e-01	-2.851740e+01	0.000000e+00
	-5.972852e-01	-2.917276e+01	0.000000e+00
	9.287663e-03	-2.917265e+01	0.000000e+00
	6.147878e-01	-2.917250e+01	0.000000e+00
	6.178353e-01	-2.851664e+01	0.000000e+00
	6.207738e-01	-2.720914e+01	0.000000e+00
	6.195359e-01	-2.786217e+01	0.000000e+00
	6.199522e-01	-2.655764e+01	0.000000e+00
	6.184653e-01	-2.590793e+01	0.000000e+00
	6.165205e-01	-2.526028e+01	0.000000e+00
	6.142432e-01	-2.461495e+01	0.000000e+00
	6.116674e-01	-2.397222e+01	0.000000e+00
	6.088137e-01	-2.333233e+01	0.000000e+00
	6.056975e-01	-2.269556e+01	0.000000e+00
	6.023269e-01	-2.206216e+01	0.000000e+00
	5.987049e-01	-2.143241e+01	0.000000e+00
	5.948330e-01	-2.080655e+01	0.000000e+00
	5.907116e-01	-2.018484e+01	0.000000e+00
	5.863405e-01	-1.956755e+01	0.000000e+00
	5.817199e-01	-1.895494e+01	0.000000e+00
	5.768495e-01	-1.834727e+01	0.000000e+00
	5.717295e-01	-1.774479e+01	0.000000e+00
	5.663597e-01	-1.714777e+01	0.000000e+00
	5.607401e-01	-1.655647e+01	0.000000e+00
	5.548708e-01	-1.597114e+01	0.000000e+00
	5.487517e-01	-1.539204e+01	0.000000e+00
	5.423828e-01	-1.481945e+01	0.000000e+00
	5.357642e-01	-1.425360e+01	0.000000e+00
	5.288957e-01	-1.369477e+01	0.000000e+00
	5.217776e-01	-1.314322e+01	0.000000e+00
	5.144096e-01	-1.259920e+01	0.000000e+00
	5.067919e-01	-1.206298e+01	0.000000e+00
	4.989244e-01	-1.153481e+01	0.000000e+00
	4.908072e-01	-1.101495e+01	0.000000e+00
	4.824401e-01	-1.050367e+01	0.000000e+00
	4.738233e-01	-1.000122e+01	0.000000e+00
	4.649568e-01	-9.507867e+00	0.000000e+00
	4.558405e-01	-9.023865e+00	0.000000e+00
	4.464744e-01	-8.549478e+00	0.000000e+00
	4.368585e-01	-8.084963e+00	0.000000e+00
	4.269929e-01	-7.630581e+00	0.000000e+00
	4.168775e-01	-7.186592e+00	0.000000e+00
	4.065123e-01	-6.753255e+00	0.000000e+00
	3.958974e-01	-6.330831e+00	0.000000e+00
	3.850327e-01	-5.919579e+00	0.000000e+00
	3.739182e-01	-5.519759e+00	0.000000e+00
	3.625540e-01	-5.131631e+00	0.000000e+00
	3.509400e-01	-4.755454e+00	0.000000e+00
	3.390762e-01	-4.391489e+00	0.000000e+00
	3.269627e-01	-4.039995e+00	0.000000e+00
	3.145994e-01	-3.701233e+00	0.000000e+00
	3.019863e-01	-3.375461e+00	0.000000e+00
	2.891235e-01	-3.062940e+00	0.000000e+00
	2.760109e-01	-2.763930e+00	0.000000e+00
	2.626486e-01	-2.478690e+00	0.000000e+00
	2.490368e-01	-2.207481e+00	0.000000e+00
	2.351759e-01	-1.950561e+00	0.000000e+00
	2.210667e-01	-1.708191e+00	0.000000e+00
	2.067119e-01	-1.480631e+00	0.000000e+00
	1.921182e-01	-1.268138e+00	0.000000e+00
	1.772949e-01	-1.070971e+00	0.000000e+00
	1.622297e-01	-8.893831e-01	0.000000e+00
	1.468677e-01	-7.236050e-01	0.000000e+00
	1.311276e-01	-5.738606e-01	0.000000e+00
	1.148961e-01	-4.404312e-01	0.000000e+00
	9.833114e-02	-3.236507e-01	0.000000e+00
	8.153900e-02	-2.237934e-01	0.000000e+00
	6.450620e-02	-1.410861e-01	0.000000e+00
	4.726054e-02	-7.571399e-02	0.000000e+00
	4.463340e-03	-5.706127e-01	0.000000e+00
	3.476062e-03	-4.371581e-01	0.000000e+00
	5.046861e-03	-7.203937e-01	0.000000e+00
	5.578592e-03	-8.862330e-01	0.000000e+00
	6.071758e-03	-1.067888e+00	0.000000e+00
	6.552953e-03	-1.265116e+00	0.000000e+00
	7.033504e-03	-1.477666e+00	0.000000e+00
	7.512906e-03	-1.705282e+00	0.000000e+00
	7.988188e-03	-1.947705e+00	0.000000e+00
	8.457215e-03	-2.204678e+00	0.000000e+00
	8.918819e-03	-2.475940e+00	0.000000e+00
	9.372414e-03	-2.761233e+00	0.000000e+00
	9.817717e-03	-3.060296e+00	0.000000e+00
	1.025463e-02	-3.372869e+00	0.000000e+00
	1.068309e-02	-3.698694e+00	0.000000e+00
	1.110310e-02	-4.037509e+00	0.000000e+00
	1.151460e-02	-4.389055e+00	0.000000e+00
	1.191763e-02	-4.753073e+00	0.000000e+00
	1.231219e-02	-5.129302e+00	0.000000e+00
	1.269823e-02	-5.517482e+00	0.000000e+00
	1.307581e-02	-5.917355e+00	0.000000e+00
	1.344491e-02	-6.328659e+00	0.000000e+00
	1.380550e-02	-6.751136e+00	0.000000e+00
	1.415762e-02	-7.184525e+00	0.000000e+00
	1.450127e-02	-7.628566e+00	0.000000e+00
	1.483640e-02	-8.083000e+00	0.000000e+00
	1.516305e-02	-8.547568e+00	0.000000e+00
	1.548123e-02	-9.022008e+00	0.000000e+00
	1.579091e-02	-9.506061e+00	0.000000e+00
	1.609212e-02	-9.999468e+00	0.000000e+00
	1.638486e-02	-1.050197e+01	0.000000e+00
	1.666912e-02	-1.101330e+01	0.000000e+00
	1.694487e-02	-1.153321e+01	0.000000e+00
	1.721214e-02	-1.206143e+01	0.000000e+00
	1.747094e-02	-1.259771e+01	0.000000e+00
	1.772122e-02	-1.314178e+01	0.000000e+00
	1.796304e-02	-1.369339e+01	0.000000e+00
	1.819639e-02	-1.425227e+01	0.000000e+00
	1.842121e-02	-1.481816e+01	0.000000e+00
	1.863757e-02	-1.539081e+01	0.000000e+00
	1.884546e-02	-1.596996e+01	0.000000e+00
	1.904480e-02	-1.655534e+01	0.000000e+00
	1.923568e-02	-1.714670e+01	0.000000e+00
	1.941809e-02	-1.774377e+01	0.000000e+00
	1.959204e-02	-1.834630e+01	0.000000e+00
	1.975759e-02	-1.895402e+01	0.000000e+00
	1.991479e-02	-1.956669e+01	0.000000e+00
	2.006371e-02	-2.018402e+01	0.000000e+00
	2.020450e-02	-2.080578e+01	0.000000e+00
	2.033722e-02	-2.143169e+01	0.000000e+00
	2.046157e-02	-2.206150e+01	0.000000e+00
	2.057633e-02	-2.269495e+01	0.000000e+00
	2.067781e-02	-2.333177e+01	0.000000e+00
	2.075514e-02	-2.397172e+01	0.000000e+00
	2.079004e-02	-2.461452e+01	0.000000e+00
	2.077499e-02	-2.525993e+01	0.000000e+00
	2.064507e-02	-2.590768e+01	0.000000e+00
	2.013427e-02	-2.655750e+01	0.000000e+00
	1.879582e-02	-2.720914e+01	0.000000e+00
	1.612801e-02	-2.786235e+01	0.000000e+00
	1.254096e-02	-2.851691e+01	0.000000e+00
	1.657464e-03	-2.204210e-01	0.000000e+00
	8.949920e-04	-1.376166e-01	0.000000e+00
	2.482825e-03	-3.203544e-01	0.000000e+00
VECTORS stress float
	0.000000e+00	0.000000e+00	0.000000e+00
	0.000000e+00	0.000000e+00	0.000000e+00
	0.000000e+00	0.000000e+00	0.000000e+00
	0.000000e+00	0.000000e+00	0.000000e+00
	0.000000e+00	0.000000e+00	0.000000e+00
	0.000000e+00	0.000000e+00	0.000000e+00
	0.000000e+00	0.000000e+00	0.000000e+00
	0.000000e+00	0.000000e+00	0.000000e+00
	0.000000e+00	0.000000e+00	0.000000e+00
	0.000000e+00	0.000000e+00	0.000000e+00
	0.000000e+00	0.000000e+00	0.000000e+00
	0.000000e+00	0.000000e+00	0.000000e+00
	0.000000e+00	0.000000e+00	0.000000e+00
	0.000000e+00	0.000000e+00	0.000000e+00
	0.000000e+00	0.000000e+00	0.000000e+00
	0.000000e+00	0.000000e+00	0.000000e+00
	0.000000e+00	0.000000e+00	0.000000e+00
	0.000000e+00	0.000000e+00	0.000000e+00
	0.000000e+00	0.000000e+00	0.000000e+00
	0.000000e+00	0.000000e+00	0.000000e+00
	0.000000e+00	0.000000e+00	0.000000e+00
	0.000000e+00	0.000000e+00	0.000000e+00
	0.000000e+00	0.000000e+00	0.000000e+00
	0.000000e+00	0.000000e+00	0.000000e+00
	0.000000e+00	0.000000e+00	0.000000e+00
	0.000000e+00	0.000000e+00	0.000000e+00
	0.000000e+00	0.000000e+00	0.000000e+00
	0.000000e+00	0.000000e+00	0.000000e+00
	0.000000e+00	0.000000e+00	0.000000e+00
	0.000000e+00	0.000000e+00	0.000000e+00
	0.000000e+00	0.000000e+00	0.000000e+00
	0.000000e+00	0.000000e+00	0.000000e+00
	0.000000e+00	0.000000e+00	0.000000e+00
	0.000000e+00	0.000000e+00	0.000000e+00
	0.000000e+00	0.000000e+00	0.000000e+00
	0.000000e+00	0.000000e+00	0.000000e+00
	0.000000e+00	0.000000e+00	0.000000e+00
	0.000000e+00	0.000000e+00	0.000000e+00
	0.000000e+00	0.000000e+00	0.000000e+00
	0.000000e+00	0.000000e+00	0.000000e+00
	0.000000e+00	0.000000e+00	0.000000e+00
	0.000000e+00	0.000000e+00	0.000000e+00
	0.000000e+00	0.000000e+00	0.000000e+00
	0.000000e+00	0.000000e+00	0.000000e+00
	0.000000e+00	0.000000e+00	0.000000e+00
	0.000000e+00	0.000000e+00	0.000000e+00
	0.000000e+00	0.000000e+00	0.000000e+00
	0.000000e+00	0.000000e+00	0.000000e+00
	0.000000e+00	0.000000e+00	0.000000e+00
	0.000000e+00	0.000000e+00	0.000000e+00
	0.000000e+00	0.000000e+00	0.000000e+00
	0.000000e+00	0.000000e+00	0.000000e+00
	0.000000e+00	0.000000e+00	0.000000e+00
	0.000000e+00	0.000000e+00	0.000000e+00
	0.000000e+00	0.000000e+00	0.000000e+00
	0.000000e+00	0.000000e+00	0.000000e+00
	0.000000e+00	0.000000e+00	0.000000e+00
	0.000000e+00	0.000000e+00	0.000000e+00
	0.000000e+00	0.000000e+00	0.000000e+00
	0.000000e+00	0.000000e+00	0.000000e+00
	0.000000e+00	0.000000e+00	0.000000e+00
	0.000000e+00	0.000000e+00	0.000000e+00
	0.000000e+00	0.000000e+00	0.000000e+00
	0.000000e+00	0.000000e+00	0.000000e+00
	0.000000e+00	0.000000e+00	0.000000e+00
	0.000000e+00	0.000000e+00	0.000000e+00
	0.000000e+00	0.000000e+00	0.000000e+00
	0.000000e+00	0.000000e+00	0.000000e+00
	0.000000e+00	0.000000e+00	0.000000e+00
	0.000000e+00	0.000000e+00	0.000000e+00
	0.000000e+00	0.000000e+00	0.000000e+00
	0.000000e+00	0.000000e+00	0.000000e+00
	0.000000e+00	0.000000e+00	0.000000e+00
	0.000000e+00	0.000000e+00	0.000000e+00
	0.000000e+00	0.000000e+00	0.000000e+00
	0.000000e+00	0.000000e+00	0.000000e+00
	0.000000e+00	0.000000e+00	0.000000e+00
	0.000000e+00	0.000000e+00	0.000000e+00
	0.000000e+00	0.000000e+00	0.000000e+00
	0.000000e+00	0.000000e+00	0.000000e+00
	0.000000e+00	0.000000e+00	0.000000e+00
	0.000000e+00	0.000000e+00	0.000000e+00
	0.000000e+00	0.000000e+00	0.000000e+00
	0.000000e+00	0.000000e+00	0.000000e+00
	0.000000e+00	0.000000e+00	0.000000e+00
	0.000000e+00	0.000000e+00	0.000000e+00
	0.000000e+00	0.000000e+00	0.000000e+00
	0.000000e+00	0.000000e+00	0.000000e+00
	0.000000e+00	0.000000e+00	0.000000e+00
	0.000000e+00	0.000000e+00	0.000000e+00
	0.000000e+00	0.000000e+00	0.000000e+00
	0.000000e+00	0.000000e+00	0.000000e+00
	0.000000e+00	0.000000e+00	0.000000e+00
	0.000000e+00	0.000000e+00	0.000000e+00
	0.000000e+00	0.000000e+00	0.000000e+00
	0.000000e+00	0.000000e+00	0.000000e+00
	0.000000e+00	0.000000e+00	0.000000e+00
	0.000000e+00	0.000000e+00	0.000000e+00
	0.000000e+00	0.000000e+00	0.000000e+00
	0.000000e+00	0.000000e+00	0.000000e+00
	0.000000e+00	0.000000e+00	0.000000e+00
	0.000000e+00	0.000000e+00	0.000000e+00
	0.000000e+00	0.000000e+00	0.000000e+00
	0.000000e+00	0.000000e+00	0.000000e+00
	0.000000e+00	0.000000e+00	0.000000e+00
	0.000000e+00	0.000000e+00	0.000000e+00
	0.000000e+00	0.000000e+00	0.000000e+00
	0.000000e+00	0.000000e+00	0.000000e+00
	0.000000e+00	0.000000e+00	0.000000e+00
	0.000000e+00	0.000000e+00	0.000000e+00
	0.000000e+00	0.000000e+00	0.000000e+00
	0.000000e+00	0.000000e+00	0.000000e+00
	0.000000e+00	0.000000e+00	0.000000e+00
	0.000000e+00	0.000000e+00	0.000000e+00
	0.000000e+00	0.000000e+00	0.000000e+00
	0.000000e+00	0.000000e+00	0.000000e+00
	0.000000e+00	0.000000e+00	0.000000e+00
	0.000000e+00	0.000000e+00	0.000000e+00
	0.000000e+00	0.000000e+00	0.000000e+00
	0.000000e+00	0.000000e+00	0.000000e+00
	0.000000e+00	0.000000e+00	0.000000e+00
	0.000000e+00	0.000000e+00	0.000000e+00
	0.000000e+00	0.000000e+00	0.000000e+00
	0.000000e+00	0.000000e+00	0.000000e+00
	0.000000e+00	0.000000e+00	0.000000e+00
	0.000000e+00	0.000000e+00	0.000000e+00
	0.000000e+00	0.000000e+00	0.000000e+00
	0.000000e+00	0.000000e+00	0.000000e+00
	0.000000e+00	0.000000e+00	0.000000e+00
	0.000000e+00	0.000000e+00	0.000000e+00
	0.000000e+00	0.000000e+00	0.000000e+00
	0.000000e+00	0.000000e+00	0.000000e+00
	0.000000e+00	0.000000e+00	0.000000e+00
	0.000000e+00	0.000000e+00	0.000000e+00
	0.000000e+00	0.000000e+00	0.000000e+00
	0.000000e+00	0.000000e+00	0.000000e+00
	0.000000e+00	0.000000e+00	0.000000e+00
	0.000000e+00	0.000000e+00	0.000000e+00
	0.000000e+00	0.000000e+00	0.000000e+00
	0.000000e+00	0.000000e+00	0.000000e+00
	0.000000e+00	0.000000e+00	0.000000e+00
	0.000000e+00	0.000000e+00	0.000000e+00
	0.000000e+00	0.000000e+00	0.000000e+00
	0.000000e+00	0.000000e+00	0.000000e+00
	0.000000e+00	0.000000e+00	0.000000e+00
	0.000000e+00	0.000000e+00	0.000000e+00
	0.000000e+00	0.000000e+00	0.000000e+00
	0.000000e+00	0.000000e+00	0.000000e+00
	0.000000e+00	0.000000e+00	0.000000e+00
	0.000000e+00	0.000000e+00	0.000000e+00
	0.000000e+00	0.000000e+00	0.000000e+00
	0.000000e+00	0.000000e+00	0.000000e+00
	0.000000e+00	0.000000e+00	0.000000e+00
	0.000000e+00	0.000000e+00	0.000000e+00
	0.000000e+00	0.000000e+00	0.000000e+00
	0.000000e+00	0.000000e+00	0.000000e+00
	0.000000e+00	0.000000e+00	0.000000e+00
	0.000000e+00	0.000000e+00	0.000000e+00
	0.000000e+00	0.000000e+00	0.000000e+00
	0.000000e+00	0.000000e+00	0.000000e+00
	0.000000e+00	0.000000e+00	0.000000e+00
	0.000000e+00	0.000000e+00	0.000000e+00
	0.000000e+00	0.000000e+00	0.000000e+00
	0.000000e+00	0.000000e+00	0.000000e+00
	0.000000e+00	0.000000e+00	0.000000e+00
	0.000000e+00	0.000000e+00	0.000000e+00
	0.000000e+00	0.000000e+00	0.000000e+00
	0.000000e+00	0.000000e+00	0.000000e+00
	0.000000e+00	0.000000e+00	0.000000e+00
	0.000000e+00	0.000000e+00	0.000000e+00
	0.000000e+00	0.000000e+00	0.000000e+00
	0.000000e+00	0.000000e+00	0.000000e+00
	0.000000e+00	0.000000e+00	0.000000e+00
	0.000000e+00	0.000000e+00	0.000000e+00
	0.000000e+00	0.000000e+00	0.000000e+00
	0.000000e+00	0.000000e+00	0.000000e+00
	0.000000e+00	0.000000e+00	0.000000e+00
	0.000000e+00	0.000000e+00	0.000000e+00
	0.000000e+00	0.000000e+00	0.000000e+00
	0.000000e+00	0.000000e+00	0.000000e+00
	0.000000e+00	0.000000e+00	0.000000e+00
	0.000000e+00	0.000000e+00	0.000000e+00
	0.000000e+00	0.000000e+00	0.000000e+00
	0.000000e+00	0.000000e+00	0.000000e+00
	0.000000e+00	0.000000e+00	0.000000e+00
	0.000000e+00	0.000000e+00	0.000000e+00
	0.000000e+00	0.000000e+00	0.000000e+00
	0.000000e+00	0.000000e+00	0.000000e+00
	0.000000e+00	0.000000e+00	0.000000e+00
	0.000000e+00	0.000000e+00	0.000000e+00
	0.000000e+00	0.000000e+00	0.000000e+00
	0.000000e+00	0.000000e+00	0.000000e+00
	0.000000e+00	0.000000e+00	0.000000e+00
	0.000000e+00	0.000000e+00	0.000000e+00
	0.000000e+00	0.000000e+00	0.000000e+00
	0.000000e+00	0.000000e+00	0.000000e+00
	0.000000e+00	0.000000e+00	0.000000e+00
	0.000000e+00	0.000000e+00	0.000000e+00
	0.000000e+00	0.000000e+00	0.000000e+00
	0.000000e+00	0.000000e+00	0.000000e+00
	0.000000e+00	0.000000e+00	0.000000e+00
	0.000000e+00	0.000000e+00	0.000000e+00
	0.000000e+00	0.000000e+00	0.000000e+00
	0.000000e+00	0.000000e+00	0.000000e+00
	0.000000e+00	0.000000e+00	0.000000e+00
	0.000000e+00	0.000000e+00	0.000000e+00
	0.000000e+00	0.000000e+00	0.000000e+00
	0.000000e+00	0.000000e+00	0.000000e+00
	0.000000e+00	0.000000e+00	0.000000e+00
	0.000000e+00	0.000000e+00	0.000000e+00
	0.000000e+00	0.000000e+00	0.000000e+00
	0.000000e+00	0.000000e+00	0.000000e+00
	0.000000e+00	0.000000e+00	0.000000e+00
	0.000000e+00	0.000000e+00	0.000000e+00
	0.000000e+00	0.000000e+00	0.000000e+00
	0.000000e+00	0.000000e+00	0.000000e+00
	0.000000e+00	0.000000e+00	0.000000e+00
	0.000000e+00	0.000000e+00	0.000000e+00
	0.000000e+00	0.000000e+00	0.000000e+00
	0.000000e+00	0.000000e+00	0.000000e+00
	0.000000e+00	0.000000e+00	0.000000e+00
	0.000000e+00	0.000000e+00	0.000000e+00
	0.000000e+00	0.000000e+00	0.000000e+00
	0.000000e+00	0.000000e+00	0.000000e+00
	0.000000e+00	0.000000e+00	0.000000e+00
	0.000000e+00	0.000000e+00	0.000000e+00
	0.000000e+00	0.000000e+00	0.000000e+00
	0.000000e+00	0.000000e+00	0.000000e+00
	0.000000e+00	0.000000e+00	0.000000e+00
	0.000000e+00	0.000000e+00	0.000000e+00
	0.000000e+00	0.000000e+00	0.000000e+00
	0.000000e+00	0.000000e+00	0.000000e+00
	0.000000e+00	0.000000e+00	0.000000e+00
	0.000000e+00	0.000000e+00	0.000000e+00
	0.000000e+00	0.000000e+00	0.000000e+00
	0.000000e+00	0.000000e+00	0.000000e+00
	0.000000e+00	0.000000e+00	0.000000e+00
	0.000000e+00	0.000000e+00	0.000000e+00
	0.000000e+00	0.000000e+00	0.000000e+00
	0.000000e+00	0.000000e+00	0.000000e+00
	0.000000e+00	0.000000e+00	0.000000e+00
	0.000000e+00	0.000000e+00	0.000000e+00
	0.000000e+00	0.000000e+00	0.000000e+00
	0.000000e+00	0.000000e+00	0.000000e+00
	0.000000e+00	0.000000e+00	0.000000e+00
	0.000000e+00	0.000000e+00	0.000000e+00
	0.000000e+00	0.000000e+00	0.000000e+00
	0.000000e+00	0.000000e+00	0.000000e+00
	0.000000e+00	0.000000e+00	0.000000e+00
	0.000000e+00	0.000000e+00	0.000000e+00
	0.000000e+00	0.000000e+00	0.000000e+00
	0.000000e+00	0.000000e+00	0.000000e+00
	0.000000e+00	0.000000e+00	0.000000e+00
	0.000000e+00	0.000000e+00	0.000000e+00
	0.000000e+00	0.000000e+00	0.000000e+00
	0.000000e+00	0.000000e+00	0.000000e+00
	0.000000e+00	0.000000e+00	0.000000e+00
	0.000000e+00	0.000000e+00	0.000000e+00
	0.000000e+00	0.000000e+00	0.000000e+00
	0.000000e+00	0.000000e+00	0.000000e+00
	0.000000e+00	0.000000e+00	0.000000e+00
	0.000000e+00	0.000000e+00	0.000000e+00
	0.000000e+00	0.000000e+00	0.000000e+00
	0.000000e+00	0.000000e+00	0.000000e+00
	0.000000e+00	0.000000e+00	0.000000e+00
	0.000000e+00	0.000000e+00	0.000000e+00
	0.000000e+00	0.000000e+00	0.000000e+00
	0.000000e+00	0.000000e+00	0.000000e+00
	0.000000e+00	0.000000e+00	0.000000e+00
	0.000000e+00	0.000000e+00	0.000000e+00
	0.000000e+00	0.000000e+00	0.000000e+00
	0.000000e+00	0.000000e+00	0.000000e+00
	0.000000e+00	0.000000e+00	0.000000e+00
	0.000000e+00	0.000000e+00	0.000000e+00
	0.000000e+00	0.000000e+00	0.000000e+00
	0.000000e+00	0.000000e+00	0.000000e+00
	0.000000e+00	0.000000e+00	0.000000e+00
	0.000000e+00	0.000000e+00	0.000000e+00
	0.000000e+00	0.000000e+00	0.000000e+00
	0.000000e+00	0.000000e+00	0.000000e+00
	0.000000e+00	0.000000e+00	0.000000e+00
	0.000000e+00	0.000000e+00	0.000000e+00
	0.000000e+00	0.000000e+00	0.000000e+00
	0.000000e+00	0.000000e+00	0.000000e+00
	0.000000e+00	0.000000e+00	0.000000e+00
	0.000000e+00	0.000000e+00	0.000000e+00
	0.000000e+00	0.000000e+00	0.000000e+00
	0.000000e+00	0.000000e+00	0.000000e+00
	0.000000e+00	0.000000e+00	0.000000e+00
	0.000000e+00	0.000000e+00	0.000000e+00
	0.000000e+00	0.000000e+00	0.000000e+00
	0.000000e+00	0.000000e+00	0.000000e+00
	0.000000e+00	0.000000e+00	0.000000e+00
	0.000000e+00	0.000000e+00	0.000000e+00
	0.000000e+00	0.000000e+00	0.000000e+00
	0.000000e+00	0.000000e+00	0.000000e+00
	0.000000e+00	0.000000e+00	0.000000e+00
	0.000000e+00	0.000000e+00	0.000000e+00
	0.000000e+00	0.000000e+00	0.000000e+00
	0.000000e+00	0.000000e+00	0.000000e+00
	0.000000e+00	0.000000e+00	0.000000e+00
	0.000000e+00	0.000000e+00	0.000000e+00
	0.000000e+00	0.000000e+00	0.000000e+00
	0.000000e+00	0.000000e+00	0.000000e+00
	0.000000e+00	0.000000e+00	0.000000e+00
	0.000000e+00	0.000000e+00	0.000000e+00
	0.000000e+00	0.000000e+00	0.000000e+00
	0.000000e+00	0.000000e+00	0.000000e+00
	0.000000e+00	0.000000e+00	0.000000e+00
	0.000000e+00	0.000000e+00	0.000000e+00
	0.000000e+00	0.000000e+00	0.000000e+00
	0.000000e+00	0.000000e+00	0.000000e+00
	0.000000e+00	0.000000e+00	0.000000e+00
	0.000000e+00	0.000000e+00	0.000000e+00
	0.000000e+00	0.000000e+00	0.000000e+00
	0.000000e+00	0.000000e+00	0.000000e+00
	0.000000e+00	0.000000e+00	0.000000e+00
	0.000000e+00	0.000000e+00	0.000000e+00
	0.000000e+00	0.000000e+00	0.000000e+00
	0.000000e+00	0.000000e+00	0.000000e+00
	0.000000e+00	0.000000e+00	0.000000e+00
	0.000000e+00	0.000000e+00	0.000000e+00
	0.000000e+00	0.000000e+00	0.000000e+00
	0.000000e+00	0.000000e+00	0.000000e+00
	0.000000e+00	0.000000e+00	0.000000e+00
	0.000000e+00	0.000000e+00	0.000000e+00
	0.000000e+00	0.000000e+00	0.000000e+00
	0.000000e+00	0.000000e+00	0.000000e+00
	0.000000e+00	0.000000e+00	0.000000e+00
	0.000000e+00	0.000000e+00	0.000000e+00
	0.000000e+00	0.000000e+00	0.000000e+00
	0.000000e+00	0.000000e+00	0.000000e+00
	0.000000e+00	0.000000e+00	0.000000e+00
	0.000000e+00	0.000000e+00	0.000000e+00
	0.000000e+00	0.000000e+00	0.000000e+00
	0.000000e+00	0.000000e+00	0.000000e+00
	0.000000e+00	0.000000e+00	0.000000e+00
	0.000000e+00	0.000000e+00	0.000000e+00
	0.000000e+00	0.000000e+00	0.000000e+00
	0.000000e+00	0.000000e+00	0.000000e+00
	0.000000e+00	0.000000e+00	0.000000e+00
	0.000000e+00	0.000000e+00	0.000000e+00
	0.000000e+00	0.000000e+00	0.000000e+00
	0.000000e+00	0.000000e+00	0.000000e+00
	0.000000e+00	0.000000e+00	0.000000e+00
	0.000000e+00	0.000000e+00	0.000000e+00
	0.000000e+00	0.000000e+00	0.000000e+00
	0.000000e+00	0.000000e+00	0.000000e+00
	0.000000e+00	0.000000e+00	0.000000e+00
	0.000000e+00	0.000000e+00	0.000000e+00
	0.000000e+00	0.000000e+00	0.000000e+00
	0.000000e+00	0.000000e+00	0.000000e+00
	0.000000e+00	0.000000e+00	0.000000e+00
	0.000000e+00	0.000000e+00	0.000000e+00
	0.000000e+00	0.000000e+00	0.000000e+00
	0.000000e+00	0.000000e+00	0.000000e+00
	0.000000e+00	0.000000e+00	0.000000e+00
	0.000000e+00	0.000000e+00	0.000000e+00
	0.000000e+00	0.000000e+00	0.000000e+00
	0.000000e+00	0.000000e+00	0.000000e+00
	0.000000e+00	0.000000e+00	0.000000e+00
	0.000000e+00	0.000000e+00	0.000000e+00
	0.000000e+00	0.000000e+00	0.000000e+00
	0.000000e+00	0.000000e+00	0.000000e+00
	0.000000e+00	0.000000e+00	0.000000e+00
	0.000000e+00	0.000000e+00	0.000000e+00
	0.000000e+00	0.000000e+00	0.000000e+00
	0.000000e+00	0.000000e+00	0.000000e+00
	0.000000e+00	0.000000e+00	0.000000e+00
	0.000000e+00	0.000000e+00	0.000000e+00
	0.000000e+00	0.000000e+00	0.000000e+00
	0.000000e+00	0.000000e+00	0.000000e+00
	0.000000e+00	0.000000e+00	0.000000e+00
	0.000000e+00	0.000000e+00	0.000000e+00
	0.000000e+00	0.000000e+00	0.000000e+00
	0.000000e+00	0.000000e+00	0.000000e+00
	0.000000e+00	0.000000e+00	0.000000e+00
	0.000000e+00	0.000000e+00	0.000000e+00
	0.000000e+00	0.000000e+00	0.000000e+00
	0.000000e+00	0.000000e+00	0.000000e+00
	0.000000e+00	0.000000e+00	0.000000e+00
	0.000000e+00	0.000000e+00	0.000000e+00
	0.000000e+00	0.000000e+00	0.000000e+00
	0.000000e+00	0.000000e+00	0.000000e+00
	0.000000e+00	0.000000e+00	0.000000e+00
	0.000000e+00	0.000000e+00	0.000000e+00
	0.000000e+00	0.000000e+00	0.000000e+00
	0.000000e+00	0.000000e+00	0.000000e+00
	0.000000e+00	0.000000e+00	0.000000e+00
	0.000000e+00	0.000000e+00	0.000000e+00
	0.000000e+00	0.000000e+00	0.000000e+00
	0.000000e+00	0.000000e+00	0.000000e+00
	0.000000e+00	0.000000e+00	0.000000e+00
	0.000000e+00	0.000000e+00	0.000000e+00
	0.000000e+00	0.000000e+00	0.000000e+00
	0.000000e+00	0.000000e+00	0.000000e+00
	0.000000e+00	0.000000e+00	0.000000e+00
	0.000000e+00	0.000000e+00	0.000000e+00
	0.000000e+00	0.000000e+00	0.000000e+00
	0.000000e+00	0.000000e+00	0.000000e+00
	0.000000e+00	0.000000e+00	0.000000e+00
	0.000000e+00	0.000000e+00	0.000000e+00
	0.000000e+00	0.000000e+00	0.000000e+00
	0.000000e+00	0.000000e+00	0.000000e+00
	0.000000e+00	0.000000e+00	0.000000e+00
	0.000000e+00	0.000000e+00	0.000000e+00
	0.000000e+00	0.000000e+00	0.000000e+00
	0.000000e+00	0.000000e+00	0.000000e+00
	0.000000e+00	0.000000e+00	0.000000e+00
	0.000000e+00	0.000000e+00	0.000000e+00
	0.000000e+00	0.000000e+00	0.000000e+00
	0.000000e+00	0.000000e+00	0.000000e+00
	0.000000e+00	0.000000e+00	0.000000e+00
	0.000000e+00	0.000000e+00	0.000000e+00
	0.000000e+00	0.000000e+00	0.000000e+00
	0.000000e+00	0.000000e+00	0.000000e+00
	0.000000e+00	0.000000e+00	0.000000e+00
	0.000000e+00	0.000000e+00	0.000000e+00
	0.000000e+00	0.000000e+00	0.000000e+00
	0.000000e+00	0.000000e+00	0.000000e+00
	0.000000e+00	0.000000e+00	0.000000e+00
	0.000000e+00	0.000000e+00	0.000000e+00
	0.000000e+00	0.000000e+00	0.000000e+00
	0.000000e+00	0.000000e+00	0.000000e+00
	0.000000e+00	0.000000e+00	0.000000e+00
	0.000000e+00	0.000000e+00	0.000000e+00
	0.000000e+00	0.000000e+00	0.000000e+00
	0.000000e+00	0.000000e+00	0.000000e+00
	0.000000e+00	0.000000e+00	0.000000e+00
	0.000000e+00	0.000000e+00	0.000000e+00
	0.000000e+00	0.000000e+00	0.000000e+00
	0.000000e+00	0.000000e+00	0.000000e+00
	0.000000e+00	0.000000e+00	0.000000e+00
	0.000000e+00	0.000000e+00	0.000000e+00
	0.000000e+00	0.000000e+00	0.000000e+00
	0.000000e+00	0.000000e+00	0.000000e+00
	0.000000e+00	0.000000e+00	0.000000e+00
	0.000000e+00	0.000000e+00	0.000000e+00
	0.000000e+00	0.000000e+00	0.000000e+00
	0.000000e+00	0.000000e+00	0.000000e+00
	0.000000e+00	0.000000e+00	0.000000e+00
	0.000000e+00	0.000000e+00	0.000000e+00
	0.000000e+00	0.000000e+00	0.000000e+00
	0.000000e+00	0.000000e+00	0.000000e+00
	0.000000e+00	0.000000e+00	0.000000e+00
	0.000000e+00	0.000000e+00	0.000000e+00
	0.000000e+00	0.000000e+00	0.000000e+00
	0.000000e+00	0.000000e+00	0.000000e+00
	0.000000e+00	0.000000e+00	0.000000e+00
	0.000000e+00	0.000000e+00	0.000000e+00
	0.000000e+00	0.000000e+00	0.000000e+00
	0.000000e+00	0.000000e+00	0.000000e+00
	0.000000e+00	0.000000e+00	0.000000e+00
	0.000000e+00	0.000000e+00	0.000000e+00
	0.000000e+00	0.000000e+00	0.000000e+00
	0.000000e+00	0.000000e+00	0.000000e+00
	0.000000e+00	0.000000e+00	0.000000e+00
	0.000000e+00	0.000000e+00	0.000000e+00
	0.000000e+00	0.000000e+00	0.000000e+00
	0.000000e+00	0.000000e+00	0.000000e+00
	0.000000e+00	0.000000e+00	0.000000e+00
	0.000000e+00	0.000000e+00	0.000000e+00
	0.000000e+00	0.000000e+00	0.000000e+00
	0.000000e+00	0.000000e+00	0.000000e+00
	0.000000e+00	0.000000e+00	0.000000e+00
	0.000000e+00	0.000000e+00	0.000000e+00
	0.000000e+00	0.000000e+00	0.000000e+00
	0.000000e+00	0.000000e+00	0.000000e+00
	0.000000e+00	0.000000e+00	0.000000e+00
	0.000000e+00	0.000000e+00	0.000000e+00
	0.000000e+00	0.000000e+00	0.000000e+00
	0.000000e+00	0.000000e+00	0.000000e+00
	0.000000e+00	0.000000e+00	0.000000e+00
	0.000000e+00	0.000000e+00	0.000000e+00
	0.000000e+00	0.000000e+00	0.000000e+00
	0.000000e+00	0.000000e+00	0.000000e+00
	0.000000e+00	0.000000e+00	0.000000e+00
	0.000000e+00	0.000000e+00	0.000000e+00
	0.000000e+00	0.000000e+00	0.000000e+00
	0.000000e+00	0.000000e+00	0.000000e+00
	0.000000e+00	0.000000e+00	0.000000e+00
	0.000000e+00	0.000000e+00	0.000000e+00
	0.000000e+00	0.000000e+00	0.000000e+00
	0.000000e+00	0.000000e+00	0.000000e+00
	0.000000e+00	0.000000e+00	0.000000e+00
	0.000000e+00	0.000000e+00	0.000000e+00
	0.000000e+00	0.000000e+00	0.000000e+00
	0.000000e+00	0.000000e+00	0.000000e+00
	0.000000e+00	0.000000e+00	0.000000e+00
	0.000000e+00	0.000000e+00	0.000000e+00
	0.000000e+00	0.000000e+00	0.000000e+00
	0.000000e+00	0.000000e+00	0.000000e+00
	0.000000e+00	0.000000e+00	0.000000e+00
	0.000000e+00	0.000000e+00	0.000000e+00
	0.000000e+00	0.000000e+00	0.000000e+00
	0.000000e+00	0.000000e+00	0.000000e+00
	0.000000e+00	0.000000e+00	0.000000e+00
	0.000000e+00	0.000000e+00	0.000000e+00
	0.000000e+00	0.000000e+00	0.000000e+00
	0.000000e+00	0.000000e+00	0.000000e+00
	0.000000e+00	0.000000e+00	0.000000e+00
	0.000000e+00	0.000000e+00	0.000000e+00
	0.000000e+00	0.000000e+00	0.000000e+00
	0.000000e+00	0.000000e+00	0.000000e+00
	0.000000e+00	0.000000e+00	0.000000e+00
	0.000000e+00	0.000000e+00	0.000000e+00
	0.000000e+00	0.000000e+00	0.000000e+00
	0.000000e+00	0.000000e+00	0.000000e+00
	0.000000e+00	0.000000e+00	0.000000e+00
	0.000000e+00	0.000000e+00	0.000000e+00
	0.000000e+00	0.000000e+00	0.000000e+00
	0.000000e+00	0.000000e+00	0.000000e+00
	0.000000e+00	0.000000e+00	0.000000e+00
	0.000000e+00	0.000000e+00	0.000000e+00
	0.000000e+00	0.000000e+00	0.000000e+00
	0.000000e+00	0.000000e+00	0.000000e+00
	0.000000e+00	0.000000e+00	0.000000e+00
	0.000000e+00	0.000000e+00	0.000000e+00
	0.000000e+00	0.000000e+00	0.000000e+00
	0.000000e+00	0.000000e+00	0.000000e+00
	0.000000e+00	0.000000e+00	0.000000e+00
	0.000000e+00	0.000000e+00	0.000000e+00
	0.000000e+00	0.000000e+00	0.000000e+00
	0.000000e+00	0.000000e+00	0.000000e+00
	0.000000e+00	0.000000e+00	0.000000e+00
	0.000000e+00	0.000000e+00	0.000000e+00
	0.000000e+00	0.000000e+00	0.000000e+00
	0.000000e+00	0.000000e+00	0.000000e+00
	0.000000e+00	0.000000e+00	0.000000e+00
	0.000000e+00	0.000000e+00	0.000000e+00
	0.000000e+00	0.000000e+00	0.000000e+00
	0.000000e+00	0.000000e+00	0.000000e+00
	0.000000e+00	0.000000e+00	0.000000e+00
	0.000000e+00	0.000000e+00	0.000000e+00
	0.000000e+00	0.000000e+00	0.000000e+00
	0.000000e+00	0.000000e+00	0.000000e+00
	0.000000e+00	0.000000e+00	0.000000e+00
	0.000000e+00	0.000000e+00	0.000000e+00
	0.000000e+00	0.000000e+00	0.000000e+00
	0.000000e+00	0.000000e+00	0.000000e+00
	0.000000e+00	0.000000e+00	0.000000e+00
	0.000000e+00	0.000000e+00	0.000000e+00
	0.000000e+00	0.000000e+00	0.000000e+00
	0.000000e+00	0.000000e+00	0.000000e+00
	0.000000e+00	0.000000e+00	0.000000e+00
	0.000000e+00	0.000000e+00	0.000000e+00
	0.000000e+00	0.000000e+00	0.000000e+00
	0.000000e+00	0.000000e+00	0.000000e+00
	0.000000e+00	0.000000e+00	0.000000e+00
	0.000000e+00	0.000000e+00	0.000000e+00
	0.000000e+00	0.000000e+00	0.000000e+00
	0.000000e+00	0.000000e+00	0.000000e+00
	0.000000e+00	0.000000e+00	0.000000e+00
	0.000000e+00	0.000000e+00	0.000000e+00
	0.000000e+00	0.000000e+00	0.000000e+00
	0.000000e+00	0.000000e+00	0.000000e+00
	0.000000e+00	0.000000e+00	0.000000e+00
	0.000000e+00	0.000000e+00	0.000000e+00
	0.000000e+00	0.000000e+00	0.000000e+00
	0.000000e+00	0.000000e+00	0.000000e+00
	0.000000e+00	0.000000e+00	0.000000e+00
	0.000000e+00	0.000000e+00	0.000000e+00
	0.000000e+00	0.000000e+00	0.000000e+00
	0.000000e+00	0.000000e+00	0.000000e+00
	0.000000e+00	0.000000e+00	0.000000e+00
	0.000000e+00	0.000000e+00	0.000000e+00
	0.000000e+00	0.000000e+00	0.000000e+00
	0.000000e+00	0.000000e+00	0.000000e+00
	0.000000e+00	0.000000e+00	0.000000e+00
	0.000000e+00	0.000000e+00	0.000000e+00
	0.000000e+00	0.000000e+00	0.000000e+00
	0.000000e+00	0.000000e+00	0.000000e+00
	0.000000e+00	0.000000e+00	0.000000e+00
	0.000000e+00	0.000000e+00	0.000000e+00
	0.000000e+00	0.000000e+00	0.000000e+00
	0.000000e+00	0.000000e+00	0.000000e+00
	0.000000e+00	0.000000e+00	0.000000e+00
	0.000000e+00	0.000000e+00	0.000000e+00
	0.000000e+00	0.000000e+00	0.000000e+00
	0.000000e+00	0.000000e+00	0.000000e+00
	0.000000e+00	0.000000e+00	0.000000e+00
	0.000000e+00	0.000000e+00	0.000000e+00
	0.000000e+00	0.000000e+00	0.000000e+00
	0.000000e+00	0.000000e+00	0.000000e+00
	0.000000e+00	0.000000e+00	0.000000e+00
	0.000000e+00	0.000000e+00	0.000000e+00
	0.000000e+00	0.000000e+00	0.000000e+00
	0.000000e+00	0.000000e+00	0.000000e+00
	0.000000e+00	0.000000e+00	0.000000e+00
	0.000000e+00	0.000000e+00	0.000000e+00
	0.000000e+00	0.000000e+00	0.000000e+00
	0.000000e+00	0.000000e+00	0.000000e+00
	0.000000e+00	0.000000e+00	0.000000e+00
	0.000000e+00	0.000000e+00	0.000000e+00
	0.000000e+00	0.000000e+00	0.000000e+00
	0.000000e+00	0.000000e+00	0.000000e+00
	0.000000e+00	0.000000e+00	0.000000e+00
	0.000000e+00	0.000000e+00	0.000000e+00
	0.000000e+00	0.000000e+00	0.000000e+00
	0.000000e+00	0.000000e+00	0.000000e+00
	0.000000e+00	0.000000e+00	0.000000e+00
	0.000000e+00	0.000000e+00	0.000000e+00
	0.000000e+00	0.000000e+00	0.000000e+00
	0.000000e+00	0.000000e+00	0.000000e+00
	0.000000e+00	0.000000e+00	0.000000e+00
	0.000000e+00	0.000000e+00	0.000000e+00
	0.000000e+00	0.000000e+00	0.000000e+00
	0.000000e+00	0.000000e+00	0.000000e+00
	0.000000e+00	0.000000e+00	0.000000e+00
	0.000000e+00	0.000000e+00	0.000000e+00
	0.000000e+00	0.000000e+00	0.000000e+00
	0.000000e+00	0.000000e+00	0.000000e+00
	0.000000e+00	0.000000e+00	0.000000e+00
	0.000000e+00	0.000000e+00	0.000000e+00
	0.000000e+00	0.000000e+00	0.000000e+00
	0.000000e+00	0.000000e+00	0.000000e+00
	0.000000e+00	0.000000e+00	0.000000e+00
	0.000000e+00	0.000000e+00	0.000000e+00
	0.000000e+00	0.000000e+00	0.000000e+00
	0.000000e+00	0.000000e+00	0.000000e+00
	0.000000e+00	0.000000e+00	0.000000e+00
	0.000000e+00	0.000000e+00	0.000000e+00
	0.000000e+00	0.000000e+00	0.000000e+00
	0.000000e+00	0.000000e+00	0.000000e+00
	0.000000e+00	0.000000e+00	0.000000e+00
	0.000000e+00	0.000000e+00	0.000000e+00
	0.000000e+00	0.000000e+00	0.000000e+00
	0.000000e+00	0.000000e+00	0.000000e+00
	0.000000e+00	0.000000e+00	0.000000e+00
	0.000000e+00	0.000000e+00	0.000000e+00
	0.000000e+00	0.000000e+00	0.000000e+00
	0.000000e+00	0.000000e+00	0.000000e+00
	0.000000e+00	0.000000e+00	0.000000e+00
	0.000000e+00	0.000000e+00	0.000000e+00
	0.000000e+00	0.000000e+00	0.000000e+00
	0.000000e+00	0.000000e+00	0.000000e+00
	0.000000e+00	0.000000e+00	0.000000e+00
	0.000000e+00	0.000000e+00	0.000000e+00
	0.000000e+00	0.000000e+00	0.000000e+00
	0.000000e+00	0.000000e+00	0.000000e+00
	0.000000e+00	0.000000e+00	0.000000e+00
	0.000000e+00	0.000000e+00	0.000000e+00
	0.000000e+00	0.000000e+00	0.000000e+00
	0.000000e+00	0.000000e+00	0.000000e+00
	0.000000e+00	0.000000e+00	0.000000e+00
	0.000000e+00	0.000000e+00	0.000000e+00
	0.000000e+00	0.000000e+00	0.000000e+00
	0.000000e+00	0.000000e+00	0.000000e+00
VECTORS strain float
	0.000000e+00	0.000000e+00	0.000000e+00
	0.000000e+00	0.000000e+00	0.000000e+00
	0.000000e+00	0.000000e+00	0.000000e+00
	0.000000e+00	0.000000e+00	0.000000e+00
	0.000000e+00	0.000000e+00	0.000000e+00
	0.000000e+00	0.000000e+00	0.000000e+00
	0.000000e+00	0.000000e+00	0.000000e+00
	0.000000e+00	0.000000e+00	0.000000e+00
	0.000000e+00	0.000000e+00	0.000000e+00
	0.000000e+00	0.000000e+00	0.000000e+00
	0.000000e+00	0.000000e+00	0.000000e+00
	0.000000e+00	0.000000e+00	0.000000e+00
	0.000000e+00	0.000000e+00	0.000000e+00
	0.000000e+00	0.000000e+00	0.000000e+00
	0.000000e+00	0.000000e+00	0.000000e+00
	0.000000e+00	0.000000e+00	0.000000e+00
	0.000000e+00	0.000000e+00	0.000000e+00
	0.000000e+00	0.000000e+00	0.000000e+00
	0.000000e+00	0.000000e+00	0.000000e+00
	0.000000e+00	0.000000e+00	0.000000e+00
	0.000000e+00	0.000000e+00	0.000000e+00
	0.000000e+00	0.000000e+00	0.000000e+00
	0.000000e+00	0.000000e+00	0.000000e+00
	0.000000e+00	0.000000e+00	0.000000e+00
	0.000000e+00	0.000000e+00	0.000000e+00
	0.000000e+00	0.000000e+00	0.000000e+00
	0.000000e+00	0.000000e+00	0.000000e+00
	0.000000e+00	0.000000e+00	0.000000e+00
	0.000000e+00	0.000000e+00	0.000000e+00
	0.000000e+00	0.000000e+00	0.000000e+00
	0.000000e+00	0.000000e+00	0.000000e+00
	0.000000e+00	0.000000e+00	0.000000e+00
	0.000000e+00	0.000000e+00	0.000000e+00
	0.000000e+00	0.000000e+00	0.000000e+00
	0.000000e+00	0.000000e+00	0.000000e+00
	0.000000e+00	0.000000e+00	0.000000e+00
	0.000000e+00	0.000000e+00	0.000000e+00
	0.000000e+00	0.000000e+00	0.000000e+00
	0.000000e+00	0.000000e+00	0.000000e+00
	0.000000e+00	0.000000e+00	0.000000e+00
	0.000000e+00	0.000000e+00	0.000000e+00
	0.000000e+00	0.000000e+00	0.000000e+00
	0.000000e+00	0.000000e+00	0.000000e+00
	0.000000e+00	0.000000e+00	0.000000e+00
	0.000000e+00	0.000000e+00	0.000000e+00
	0.000000e+00	0.000000e+00	0.000000e+00
	0.000000e+00	0.000000e+00	0.000000e+00
	0.000000e+00	0.000000e+00	0.000000e+00
	0.000000e+00	0.000000e+00	0.000000e+00
	0.000000e+00	0.000000e+00	0.000000e+00
	0.000000e+00	0.000000e+00	0.000000e+00
	0.000000e+00	0.000000e+00	0.000000e+00
	0.000000e+00	0.000000e+00	0.000000e+00
	0.000000e+00	0.000000e+00	0.000000e+00
	0.000000e+00	0.000000e+00	0.000000e+00
	0.000000e+00	0.000000e+00	0.000000e+00
	0.000000e+00	0.000000e+00	0.000000e+00
	0.000000e+00	0.000000e+00	0.000000e+00
	0.000000e+00	0.000000e+00	0.000000e+00
	0.000000e+00	0.000000e+00	0.000000e+00
	0.000000e+00	0.000000e+00	0.000000e+00
	0.000000e+00	0.000000e+00	0.000000e+00
	0.000000e+00	0.000000e+00	0.000000e+00
	0.000000e+00	0.000000e+00	0.000000e+00
	0.000000e+00	0.000000e+00	0.000000e+00
	0.000000e+00	0.000000e+00	0.000000e+00
	0.000000e+00	0.000000e+00	0.000000e+00
	0.000000e+00	0.000000e+00	0.000000e+00
	0.000000e+00	0.000000e+00	0.000000e+00
	0.000000e+00	0.000000e+00	0.000000e+00
	0.000000e+00	0.000000e+00	0.000000e+00
	0.000000e+00	0.000000e+00	0.000000e+00
	0.000000e+00	0.000000e+00	0.000000e+00
	0.000000e+00	0.000000e+00	0.000000e+00
	0.000000e+00	0.000000e+00	0.000000e+00
	0.000000e+00	0.000000e+00	0.000000e+00
	0.000000e+00	0.000000e+00	0.000000e+00
	0.000000e+00	0.000000e+00	0.000000e+00
	0.000000e+00	0.000000e+00	0.000000e+00
	0.000000e+00	0.000000e+00	0.000000e+00
	0.000000e+00	0.000000e+00	0.000000e+00
	0.000000e+00	0.000000e+00	0.000000e+00
	0.000000e+00	0.000000e+00	0.000000e+00
	0.000000e+00	0.000000e+00	0.000000e+00
	0.000000e+00	0.000000e+00	0.000000e+00
	0.000000e+00	0.000000e+00	0.000000e+00
	0.000000e+00	0.000000e+00	0.000000e+00
	0.000000e+00	0.000000e+00	0.000000e+00
	0.000000e+00	0.000000e+00	0.000000e+00
	0.000000e+00	0.000000e+00	0.000000e+00
	0.000000e+00	0.000000e+00	0.000000e+00
	0.000000e+00	0.000000e+00	0.000000e+00
	0.000000e+00	0.000000e+00	0.000000e+00
	0.000000e+00	0.000000e+00	0.000000e+00
	0.000000e+00	0.000000e+00	0.000000e+00
	0.000000e+00	0.000000e+00	0.000000e+00
	0.000000e+00	0.000000e+00	0.000000e+00
	0.000000e+00	0.000000e+00	0.000000e+00
	0.000000e+00	0.000000e+00	0.000000e+00
	0.000000e+00	0.000000e+00	0.000000e+00
	0.000000e+00	0.000000e+00	0.000000e+00
	0.000000e+00	0.000000e+00	0.000000e+00
	0.000000e+00	0.000000e+00	0.000000e+00
	0.000000e+00	0.000000e+00	0.000000e+00
	0.000000e+00	0.000000e+00	0.000000e+00
	0.000000e+00	0.000000e+00	0.000000e+00
	0.000000e+00	0.000000e+00	0.000000e+00
	0.000000e+00	0.000000e+00	0.000000e+00
	0.000000e+00	0.000000e+00	0.000000e+00
	0.000000e+00	0.000000e+00	0.000000e+00
	0.000000e+00	0.000000e+00	0.000000e+00
	0.000000e+00	0.000000e+00	0.000000e+00
	0.000000e+00	0.000000e+00	0.000000e+00
	0.000000e+00	0.000000e+00	0.000000e+00
	0.000000e+00	0.000000e+00	0.000000e+00
	0.000000e+00	0.000000e+00	0.000000e+00
	0.000000e+00	0.000000e+00	0.000000e+00
	0.000000e+00	0.000000e+00	0.000000e+00
	0.000000e+00	0.000000e+00	0.000000e+00
	0.000000e+00	0.000000e+00	0.000000e+00
	0.000000e+00	0.000000e+00	0.000000e+00
	0.000000e+00	0.000000e+00	0.000000e+00
	0.000000e+00	0.000000e+00	0.000000e+00
	0.000000e+00	0.000000e+00	0.000000e+00
	0.000000e+00	0.000000e+00	0.000000e+00
	0.000000e+00	0.000000e+00	0.000000e+00
	0.000000e+00	0.000000e+00	0.000000e+00
	0.000000e+00	0.000000e+00	0.000000e+00
	0.000000e+00	0.000000e+00	0.000000e+00
	0.000000e+00	0.000000e+00	0.000000e+00
	0.000000e+00	0.000000e+00	0.000000e+00
	0.000000e+00	0.000000e+00	0.000000e+00
	0.000000e+00	0.000000e+00	0.000000e+00
	0.000000e+00	0.000000e+00	0.000000e+00
	0.000000e+00	0.000000e+00	0.000000e+00
	0.000000e+00	0.000000e+00	0.000000e+00
	0.000000e+00	0.000000e+00	0.000000e+00
	0.000000e+00	0.000000e+00	0.000000e+00
	0.000000e+00	0.000000e+00	0.000000e+00
	0.000000e+00	0.000000e+00	0.000000e+00
	0.000000e+00	0.000000e+00	0.000000e+00
	0.000000e+00	0.000000e+00	0.000000e+00
	0.000000e+00	0.000000e+00	0.000000e+00
	0.000000e+00	0.000000e+00	0.000000e+00
	0.000000e+00	0.000000e+00	0.000000e+00
	0.000000e+00	0.000000e+00	0.000000e+00
	0.000000e+00	0.000000e+00	0.000000e+00
	0.000000e+00	0.000000e+00	0.000000e+00
	0.000000e+00	0.000000e+00	0.000000e+00
	0.000000e+00	0.000000e+00	0.000000e+00
	0.000000e+00	0.000000e+00	0.000000e+00
	0.000000e+00	0.000000e+00	0.000000e+00
	0.000000e+00	0.000000e+00	0.000000e+00
	0.000000e+00	0.000000e+00	0.000000e+00
	0.000000e+00	0.000000e+00	0.000000e+00
	0.000000e+00	0.000000e+00	0.000000e+00
	0.000000e+00	0.000000e+00	0.000000e+00
	0.000000e+00	0.000000e+00	0.000000e+00
	0.000000e+00	0.000000e+00	0.000000e+00
	0.000000e+00	0.000000e+00	0.000000e+00
	0.000000e+00	0.000000e+00	0.000000e+00
	0.000000e+00	0.000000e+00	0.000000e+00
	0.000000e+00	0.000000e+00	0.000000e+00
	0.000000e+00	0.000000e+00	0.000000e+00
	0.000000e+00	0.000000e+00	0.000000e+00
	0.000000e+00	0.000000e+00	0.000000e+00
	0.000000e+00	0.000000e+00	0.000000e+00
	0.000000e+00	0.000000e+00	0.000000e+00
	0.000000e+00	0.000000e+00	0.000000e+00
	0.000000e+00	0.000000e+00	0.000000e+00
	0.000000e+00	0.000000e+00	0.000000e+00
	0.000000e+00	0.000000e+00	0.000000e+00
	0.000000e+00	0.000000e+00	0.000000e+00
	0.000000e+00	0.000000e+00	0.000000e+00
	0.000000e+00	0.000000e+00	0.000000e+00
	0.000000e+00	0.000000e+00	0.000000e+00
	0.000000e+00	0.000000e+00	0.000000e+00
	0.000000e+00	0.000000e+00	0.000000e+00
	0.000000e+00	0.000000e+00	0.000000e+00
	0.000000e+00	0.000000e+00	0.000000e+00
	0.000000e+00	0.000000e+00	0.000000e+00
	0.000000e+00	0.000000e+00	0.000000e+00
	0.000000e+00	0.000000e+00	0.000000e+00
	0.000000e+00	0.000000e+00	0.000000e+00
	0.000000e+00	0.000000e+00	0.000000e+00
	0.000000e+00	0.000000e+00	0.000000e+00
	0.000000e+00	0.000000e+00	0.000000e+00
	0.000000e+00	0.000000e+00	0.000000e+00
	0.000000e+00	0.000000e+00	0.000000e+00
	0.000000e+00	0.000000e+00	0.000000e+00
	0.000000e+00	0.000000e+00	0.000000e+00
	0.000000e+00	0.000000e+00	0.000000e+00
	0.000000e+00	0.000000e+00	0.000000e+00
	0.000000e+00	0.000000e+00	0.000000e+00
	0.000000e+00	0.000000e+00	0.000000e+00
	0.000000e+00	0.000000e+00	0.000000e+00
	0.000000e+00	0.000000e+00	0.000000e+00
	0.000000e+00	0.000000e+00	0.000000e+00
	0.000000e+00	0.000000e+00	0.000000e+00
	0.000000e+00	0.000000e+00	0.000000e+00
	0.000000e+00	0.000000e+00	0.000000e+00
	0.000000e+00	0.000000e+00	0.000000e+00
	0.000000e+00	0.000000e+00	0.000000e+00
	0.000000e+00	0.000000e+00	0.000000e+00
	0.000000e+00	0.000000e+00	0.000000e+00
	0.000000e+00	0.000000e+00	0.000000e+00
	0.000000e+00	0.000000e+00	0.000000e+00
	0.000000e+00	0.000000e+00	0.000000e+00
	0.000000e+00	0.000000e+00	0.000000e+00
	0.000000e+00	0.000000e+00	0.000000e+00
	0.000000e+00	0.000000e+00	0.000000e+00
	0.000000e+00	0.000000e+00	0.000000e+00
	0.000000e+00	0.000000e+00	0.000000e+00
	0.000000e+00	0.000000e+00	0.000000e+00
	0.000000e+00	0.000000e+00	0.000000e+00
	0.000000e+00	0.000000e+00	0.000000e+00
	0.000000e+00	0.000000e+00	0.000000e+00
	0.000000e+00	0.000000e+00	0.000000e+00
	0.000000e+00	0.000000e+00	0.000000e+00
	0.000000e+00	0.000000e+00	0.000000e+00
	0.000000e+00	0.000000e+00	0.000000e+00
	0.000000e+00	0.000000e+00	0.000000e+00
	0.000000e+00	0.000000e+00	0.000000e+00
	0.000000e+00	0.000000e+00	0.000000e+00
	0.000000e+00	0.000000e+00	0.000000e+00
	0.000000e+00	0.000000e+00	0.000000e+00
	0.000000e+00	0.000000e+00	0.000000e+00
	0.000000e+00	0.000000e+00	0.000000e+00
	0.000000e+00	0.000000e+00	0.000000e+00
	0.000000e+00	0.000000e+00	0.000000e+00
	0.000000e+00	0.000000e+00	0.000000e+00
	0.000000e+00	0.000000e+00	0.000000e+00
	0.000000e+00	0.000000e+00	0.000000e+00
	0.000000e+00	0.000000e+00	0.000000e+00
	0.000000e+00	0.000000e+00	0.000000e+00
	0.000000e+00	0.000000e+00	0.000000e+00
	0.000000e+00	0.000000e+00	0.000000e+00
	0.000000e+00	0.000000e+00	0.000000e+00
	0.000000e+00	0.000000e+00	0.000000e+00
	0.000000e+00	0.000000e+00	0.000000e+00
	0.000000e+00	0.000000e+00	0.000000e+00
	0.000000e+00	0.000000e+00	0.000000e+00
	0.000000e+00	0.000000e+00	0.000000e+00
	0.000000e+00	0.000000e+00	0.000000e+00
	0.000000e+00	0.000000e+00	0.000000e+00
	0.000000e+00	0.000000e+00	0.000000e+00
	0.000000e+00	0.000000e+00	0.000000e+00
	0.000000e+00	0.000000e+00	0.000000e+00
	0.000000e+00	0.000000e+00	0.000000e+00
	0.000000e+00	0.000000e+00	0.000000e+00
	0.000000e+00	0.000000e+00	0.000000e+00
	0.000000e+00	0.000000e+00	0.000000e+00
	0.000000e+00	0.000000e+00	0.000000e+00
	0.000000e+00	0.000000e+00	0.000000e+00
	0.000000e+00	0.000000e+00	0.000000e+00
	0.000000e+00	0.000000e+00	0.000000e+00
	0.000000e+00	0.000000e+00	0.000000e+00
	0.000000e+00	0.000000e+00	0.000000e+00
	0.000000e+00	0.000000e+00	0.000000e+00
	0.000000e+00	0.000000e+00	0.000000e+00
	0.000000e+00	0.000000e+00	0.000000e+00
	0.000000e+00	0.000000e+00	0.000000e+00
	0.000000e+00	0.000000e+00	0.000000e+00
	0.000000e+00	0.000000e+00	0.000000e+00
	0.000000e+00	0.000000e+00	0.000000e+00
	0.000000e+00	0.000000e+00	0.000000e+00
	0.000000e+00	0.000000e+00	0.000000e+00
	0.000000e+00	0.000000e+00	0.000000e+00
	0.000000e+00	0.000000e+00	0.000000e+00
	0.000000e+00	0.000000e+00	0.000000e+00
	0.000000e+00	0.000000e+00	0.000000e+00
	0.000000e+00	0.000000e+00	0.000000e+00
	0.000000e+00	0.000000e+00	0.000000e+00
	0.000000e+00	0.000000e+00	0.000000e+00
	0.000000e+00	0.000000e+00	0.000000e+00
	0.000000e+00	0.000000e+00	0.000000e+00
	0.000000e+00	0.000000e+00	0.000000e+00
	0.000000e+00	0.000000e+00	0.000000e+00
	0.000000e+00	0.000000e+00	0.000000e+00
	0.000000e+00	0.000000e+00	0.000000e+00
	0.000000e+00	0.000000e+00	0.000000e+00
	0.000000e+00	0.000000e+00	0.000000e+00
	0.000000e+00	0.000000e+00	0.000000e+00
	0.000000e+00	0.000000e+00	0.000000e+00
	0.000000e+00	0.000000e+00	0.000000e+00
	0.000000e+00	0.000000e+00	0.000000e+00
	0.000000e+00	0.000000e+00	0.000000e+00
	0.000000e+00	0.000000e+00	0.000000e+00
	0.000000e+00	0.000000e+00	0.000000e+00
	0.000000e+00	0.000000e+00	0.000000e+00
	0.000000e+00	0.000000e+00	0.000000e+00
	0.000000e+00	0.000000e+00	0.000000e+00
	0.000000e+00	0.000000e+00	0.000000e+00
	0.000000e+00	0.000000e+00	0.000000e+00
	0.000000e+00	0.000000e+00	0.000000e+00
	0.000000e+00	0.000000e+00	0.000000e+00
	0.000000e+00	0.000000e+00	0.000000e+00
	0.000000e+00	0.000000e+00	0.000000e+00
	0.000000e+00	0.000000e+00	0.000000e+00
	0.000000e+00	0.000000e+00	0.000000e+00
	0.000000e+00	0.000000e+00	0.000000e+00
	0.000000e+00	0.000000e+00	0.000000e+00
	0.000000e+00	0.000000e+00	0.000000e+00
	0.000000e+00	0.000000e+00	0.000000e+00
	0.000000e+00	0.000000e+00	0.000000e+00
	0.000000e+00	0.000000e+00	0.000000e+00
	0.000000e+00	0.000000e+00	0.000000e+00
	0.000000e+00	0.000000e+00	0.000000e+00
	0.000000e+00	0.000000e+00	0.000000e+00
	0.000000e+00	0.000000e+00	0.000000e+00
	0.000000e+00	0.000000e+00	0.000000e+00
	0.000000e+00	0.000000e+00	0.000000e+00
	0.000000e+00	0.000000e+00	0.000000e+00
	0.000000e+00	0.000000e+00	0.000000e+00
	0.000000e+00	0.000000e+00	0.000000e+00
	0.000000e+00	0.000000e+00	0.000000e+00
	0.000000e+00	0.000000e+00	0.000000e+00
	0.000000e+00	0.000000e+00	0.000000e+00
	0.000000e+00	0.000000e+00	0.000000e+00
	0.000000e+00	0.000000e+00	0.000000e+00
	0.000000e+00	0.000000e+00	0.000000e+00
	0.000000e+00	0.000000e+00	0.000000e+00
	0.000000e+00	0.000000e+00	0.000000e+00
	0.000000e+00	0.000000e+00	0.000000e+00
	0.000000e+00	0.000000e+00	0.000000e+00
	0.000000e+00	0.000000e+00	0.000000e+00
	0.000000e+00	0.000000e+00	0.000000e+00
	0.000000e+00	0.000000e+00	0.000000e+00
	0.000000e+00	0.000000e+00	0.000000e+00
	0.000000e+00	0.000000e+00	0.000000e+00
	0.000000e+00	0.000000e+00	0.000000e+00
	0.000000e+00	0.000000e+00	0.000000e+00
	0.000000e+00	0.000000e+00	0.000000e+00
	0.000000e+00	0.000000e+00	0.000000e+00
	0.000000e+00	0.000000e+00	0.000000e+00
	0.000000e+00	0.000000e+00	0.000000e+00
	0.000000e+00	0.000000e+00	0.000000e+00
	0.000000e+00	0.000000e+00	0.000000e+00
	0.000000e+00	0.000000e+00	0.000000e+00
	0.000000e+00	0.000000e+00	0.000000e+00
	0.000000e+00	0.000000e+00	0.000000e+00
	0.000000e+00	0.000000e+00	0.000000e+00
	0.000000e+00	0.000000e+00	0.000000e+00
	0.000000e+00	0.000000e+00	0.000000e+00
	0.000000e+00	0.000000e+00	0.000000e+00
	0.000000e+00	0.000000e+00	0.000000e+00
	0.000000e+00	0.000000e+00	0.000000e+00
	0.000000e+00	0.000000e+00	0.000000e+00
	0.000000e+00	0.000000e+00	0.000000e+00
	0.000000e+00	0.000000e+00	0.000000e+00
	0.000000e+00	0.000000e+00	0.000000e+00
	0.000000e+00	0.000000e+00	0.000000e+00
	0.000000e+00	0.000000e+00	0.000000e+00
	0.000000e+00	0.000000e+00	0.000000e+00
	0.000000e+00	0.000000e+00	0.000000e+00
	0.000000e+00	0.000000e+00	0.000000e+00
	0.000000e+00	0.000000e+00	0.000000e+00
	0.000000e+00	0.000000e+00	0.000000e+00
	0.000000e+00	0.000000e+00	0.000000e+00
	0.000000e+00	0.000000e+00	0.000000e+00
	0.000000e+00	0.000000e+00	0.000000e+00
	0.000000e+00	0.000000e+00	0.000000e+00
	0.000000e+00	0.000000e+00	0.000000e+00
	0.000000e+00	0.000000e+00	0.000000e+00
	0.000000e+00	0.000000e+00	0.000000e+00
	0.000000e+00	0.000000e+00	0.000000e+00
	0.000000e+00	0.000000e+00	0.000000e+00
	0.000000e+00	0.000000e+00	0.000000e+00
	0.000000e+00	0.000000e+00	0.000000e+00
	0.000000e+00	0.000000e+00	0.000000e+00
	0.000000e+00	0.000000e+00	0.000000e+00
	0.000000e+00	0.000000e+00	0.000000e+00
	0.000000e+00	0.000000e+00	0.000000e+00
	0.000000e+00	0.000000e+00	0.000000e+00
	0.000000e+00	0.000000e+00	0.000000e+00
	0.000000e+00	0.000000e+00	0.000000e+00
	0.000000e+00	0.000000e+00	0.000000e+00
	0.000000e+00	0.000000e+00	0.000000e+00
	0.000000e+00	0.000000e+00	0.000000e+00
	0.000000e+00	0.000000e+00	0.000000e+00
	0.000000e+00	0.000000e+00	0.000000e+00
	0.000000e+00	0.000000e+00	0.000000e+00
	0.000000e+00	0.000000e+00	0.000000e+00
	0.000000e+00	0.000000e+00	0.000000e+00
	0.000000e+00	0.000000e+00	0.000000e+00
	0.000000e+00	0.000000e+00	0.000000e+00
	0.000000e+00	0.000000e+00	0.000000e+00
	0.000000e+00	0.000000e+00	0.000000e+00
	0.000000e+00	0.000000e+00	0.000000e+00
	0.000000e+00	0.000000e+00	0.000000e+00
	0.000000e+00	0.000000e+00	0.000000e+00
	0.000000e+00	0.000000e+00	0.000000e+00
	0.000000e+00	0.000000e+00	0.000000e+00
	0.000000e+00	0.000000e+00	0.000000e+00
	0.000000e+00	0.000000e+00	0.000000e+00
	0.000000e+00	0.000000e+00	0.000000e+00
	0.000000e+00	0.000000e+00	0.000000e+00
	0.000000e+00	0.000000e+00	0.000000e+00
	0.000000e+00	0.000000e+00	0.000000e+00
	0.000000e+00	0.000000e+00	0.000000e+00
	0.000000e+00	0.000000e+00	0.000000e+00
	0.000000e+00	0.000000e+00	0.000000e+00
	0.000000e+00	0.000000e+00	0.000000e+00
	0.000000e+00	0.000000e+00	0.000000e+00
	0.000000e+00	0.000000e+00	0.000000e+00
	0.000000e+00	0.000000e+00	0.000000e+00
	0.000000e+00	0.000000e+00	0.000000e+00
	0.000000e+00	0.000000e+00	0.000000e+00
	0.000000e+00	0.000000e+00	0.000000e+00
	0.000000e+00	0.000000e+00	0.000000e+00
	0.000000e+00	0.000000e+00	0.000000e+00
	0.000000e+00	0.000000e+00	0.000000e+00
	0.000000e+00	0.000000e+00	0.000000e+00
	0.000000e+00	0.000000e+00	0.000000e+00
	0.000000e+00	0.000000e+00	0.000000e+00
	0.000000e+00	0.000000e+00	0.000000e+00
	0.000000e+00	0.000000e+00	0.000000e+00
	0.000000e+00	0.000000e+00	0.000000e+00
	0.000000e+00	0.000000e+00	0.000000e+00
	0.000000e+00	0.000000e+00	0.000000e+00
	0.000000e+00	0.000000e+00	0.000000e+00
	0.000000e+00	0.000000e+00	0.000000e+00
	0.000000e+00	0.000000e+00	0.000000e+00
	0.000000e+00	0.000000e+00	0.000000e+00
	0.000000e+00	0.000000e+00	0.000000e+00
	0.000000e+00	0.000000e+00	0.000000e+00
	0.000000e+00	0.000000e+00	0.000000e+00
	0.000000e+00	0.000000e+00	0.000000e+00
	0.000000e+00	0.000000e+00	0.000000e+00
	0.000000e+00	0.000000e+00	0.000000e+00
	0.000000e+00	0.000000e+00	0.000000e+00
	0.000000e+00	0.000000e+00	0.000000e+00
	0.000000e+00	0.000000e+00	0.000000e+00
	0.000000e+00	0.000000e+00	0.000000e+00
	0.000000e+00	0.000000e+00	0.000000e+00
	0.000000e+00	0.000000e+00	0.000000e+00
	0.000000e+00	0.000000e+00	0.000000e+00
	0.000000e+00	0.000000e+00	0.000000e+00
	0.000000e+00	0.000000e+00	0.000000e+00
	0.000000e+00	0.000000e+00	0.000000e+00
	0.000000e+00	0.000000e+00	0.000000e+00
	0.000000e+00	0.000000e+00	0.000000e+00
	0.000000e+00	0.000000e+00	0.000000e+00
	0.000000e+00	0.000000e+00	0.000000e+00
	0.000000e+00	0.000000e+00	0.000000e+00
	0.000000e+00	0.000000e+00	0.000000e+00
	0.000000e+00	0.000000e+00	0.000000e+00
	0.000000e+00	0.000000e+00	0.000000e+00
	0.000000e+00	0.000000e+00	0.000000e+00
	0.000000e+00	0.000000e+00	0.000000e+00
	0.000000e+00	0.000000e+00	0.000000e+00
	0.000000e+00	0.000000e+00	0.000000e+00
	0.000000e+00	0.000000e+00	0.000000e+00
	0.000000e+00	0.000000e+00	0.000000e+00
	0.000000e+00	0.000000e+00	0.000000e+00
	0.000000e+00	0.000000e+00	0.000000e+00
	0.000000e+00	0.000000e+00	0.000000e+00
	0.000000e+00	0.000000e+00	0.000000e+00
	0.000000e+00	0.000000e+00	0.000000e+00
	0.000000e+00	0.000000e+00	0.000000e+00
	0.000000e+00	0.000000e+00	0.000000e+00
	0.000000e+00	0.000000e+00	0.000000e+00
	0.000000e+00	0.000000e+00	0.000000e+00
	0.000000e+00	0.000000e+00	0.000000e+00
	0.000000e+00	0.000000e+00	0.000000e+00
	0.000000e+00	0.000000e+00	0.000000e+00
	0.000000e+00	0.000000e+00	0.000000e+00
	0.000000e+00	0.000000e+00	0.000000e+00
	0.000000e+00	0.000000e+00	0.000000e+00
	0.000000e+00	0.000000e+00	0.000000e+00
	0.000000e+00	0.000000e+00	0.000000e+00
	0.000000e+00	0.000000e+00	0.000000e+00
	0.000000e+00	0.000000e+00	0.000000e+00
	0.000000e+00	0.000000e+00	0.000000e+00
	0.000000e+00	0.000000e+00	0.000000e+00
	0.000000e+00	0.000000e+00	0.000000e+00
	0.000000e+00	0.000000e+00	0.000000e+00
	0.000000e+00	0.000000e+00	0.000000e+00
	0.000000e+00	0.000000e+00	0.000000e+00
	0.000000e+00	0.000000e+00	0.000000e+00
	0.000000e+00	0.000000e+00	0.000000e+00
	0.000000e+00	0.000000e+00	0.000000e+00
	0.000000e+00	0.000000e+00	0.000000e+00
	0.000000e+00	0.000000e+00	0.000000e+00
	0.000000e+00	0.000000e+00	0.000000e+00
	0.000000e+00	0.000000e+00	0.000000e+00
	0.000000e+00	0.000000e+00	0.000000e+00
	0.000000e+00	0.000000e+00	0.000000e+00
	0.000000e+00	0.000000e+00	0.000000e+00
	0.000000e+00	0.000000e+00	0.000000e+00
	0.000000e+00	0.000000e+00	0.000000e+00
	0.000000e+00	0.000000e+00	0.000000e+00
	0.000000e+00	0.000000e+00	0.000000e+00
	0.000000e+00	0.000000e+00	0.000000e+00
	0.000000e+00	0.000000e+00	0.000000e+00
	0.000000e+00	0.000000e+00	0.000000e+00
	0.000000e+00	0.000000e+00	0.000000e+00
	0.000000e+00	0.000000e+00	0.000000e+00
	0.000000e+00	0.000000e+00	0.000000e+00
	0.000000e+00	0.000000e+00	0.000000e+00
	0.000000e+00	0.000000e+00	0.000000e+00
	0.000000e+00	0.000000e+00	0.000000e+00
	0.000000e+00	0.000000e+00	0.000000e+00
	0.000000e+00	0.000000e+00	0.000000e+00
	0.000000e+00	0.000000e+00	0.000000e+00
	0.000000e+00	0.000000e+00	0.000000e+00
	0.000000e+00	0.000000e+00	0.000000e+00
	0.000000e+00	0.000000e+00	0.000000e+00
	0.000000e+00	0.000000e+00	0.000000e+00
	0.000000e+00	0.000000e+00	0.000000e+00
	0.000000e+00	0.000000e+00	0.000000e+00
	0.000000e+00	0.000000e+00	0.000000e+00
	0.000000e+00	0.000000e+00	0.000000e+00
	0.000000e+00	0.000000e+00	0.000000e+00
	0.000000e+00	0.000000e+00	0.000000e+00
	0.000000e+00	0.000000e+00	0.000000e+00
	0.000000e+00	0.000000e+00	0.000000e+00
	0.000000e+00	0.000000e+00	0.000000e+00
	0.000000e+00	0.000000e+00	0.000000e+00
	0.000000e+00	0.000000e+00	0.000000e+00
	0.000000e+00	0.000000e+00	0.000000e+00
	0.000000e+00	0.000000e+00	0.000000e+00
	0.000000e+00	0.000000e+00	0.000000e+00
	0.000000e+00	0.000000e+00	0.000000e+00
	0.000000e+00	0.000000e+00	0.000000e+00
	0.000000e+00	0.000000e+00	0.000000e+00
	0.000000e+00	0.000000e+00	0.000000e+00
	0.000000e+00	0.000000e+00	0.000000e+00
	0.000000e+00	0.000000e+00	0.000000e+00
	0.000000e+00	0.000000e+00	0.000000e+00
	0.000000e+00	0.000000e+00	0.000000e+00
	0.000000e+00	0.000000e+00	0.000000e+00
	0.000000e+00	0.000000e+00	0.000000e+00
	0.000000e+00	0.000000e+00	0.000000e+00
	0.000000e+00	0.000000e+00	0.000000e+00
	0.000000e+00	0.000000e+00	0.000000e+00
	0.000000e+00	0.000000e+00	0.000000e+00
	0.000000e+00	0.000000e+00	0.000000e+00
	0.000000e+00	0.000000e+00	0.000000e+00
	0.000000e+00	0.000000e+00	0.000000e+00
	0.000000e+00	0.000000e+00	0.000000e+00
	0.000000e+00	0.000000e+00	0.000000e+00
	0.000000e+00	0.000000e+00	0.000000e+00
	0.000000e+00	0.000000e+00	0.000000e+00
	0.000000e+00	0.000000e+00	0.000000e+00
	0.000000e+00	0.000000e+00	0.000000e+00
	0.000000e+00	0.000000e+00	0.000000e+00
	0.000000e+00	0.000000e+00	0.000000e+00
	0.000000e+00	0.000000e+00	0.000000e+00
	0.000000e+00	0.000000e+00	0.000000e+00
	0.000000e+00	0.000000e+00	0.000000e+00
	0.000000e+00	0.000000e+00	0.000000e+00
	0.000000e+00	0.000000e+00	0.000000e+00
	0.000000e+00	0.000000e+00	0.000000e+00
	0.000000e+00	0.000000e+00	0.000000e+00
	0.000000e+00	0.000000e+00	0.000000e+00
	0.000000e+00	0.000000e+00	0.000000e+00
	0.000000e+00	0.000000e+00	0.000000e+00
	0.000000e+00	0.000000e+00	0.000000e+00
	0.000000e+00	0.000000e+00	0.000000e+00
	0.000000e+00	0.000000e+00	0.000000e+00
	0.000000e+00	0.000000e+00	0.000000e+00
	0.000000e+00	0.000000e+00	0.000000e+00
	0.000000e+00	0.000000e+00	0.000000e+00
	0.000000e+00	0.000000e+00	0.000000e+00
	0.000000e+00	0.000000e+00	0.000000e+00
	0.000000e+00	0.000000e+00	0.000000e+00
	0.000000e+00	0.000000e+00	0.000000e+00
	0.000000e+00	0.000000e+00	0.000000e+00
	0.000000e+00	0.000000e+00	0.000000e+00
	0.000000e+00	0.000000e+00	0.000000e+00
	0.000000e+00	0.000000e+00	0.000000e+00
	0.000000e+00	0.000000e+00	0.000000e+00
	0.000000e+00	0.000000e+00	0.000000e+00
	0.000000e+00	0.000000e+00	0.000000e+00
	0.000000e+00	0.000000e+00	0.000000e+00
	0.000000e+00	0.000000e+00	0.000000e+00
	0.000000e+00	0.000000e+00	0.000000e+00
	0.000000e+00	0.000000e+00	0.000000e+00
	0.000000e+00	0.000000e+00	0.000000e+00
	0.000000e+00	0.000000e+00	0.000000e+00
	0.000000e+00	0.000000e+00	0.000000e+00
	0.000000e+00	0.000000e+00	0.000000e+00
	0.000000e+00	0.000000e+00	0.000000e+00
	0.000000e+00	0.000000e+00	0.000000e+00
	0.000000e+00	0.000000e+00	0.000000e+00
	0.000000e+00	0.000000e+00	0.000000e+00
	0.000000e+00	0.000000e+00	0.000000e+00
	0.000000e+00	0.000000e+00	0.000000e+00
	0.000000e+00	0.000000e+00	0.000000e+00
	0.000000e+00	0.000000e+00	0.000000e+00
	0.000000e+00	0.000000e+00	0.000000e+00
	0.000000e+00	0.000000e+00	0.000000e+00
	0.000000e+00	0.000000e+00	0.000000e+00
	0.000000e+00	0.000000e+00	0.000000e+00
	0.000000e+00	0.000000e+00	0.000000e+00
	0.000000e+00	0.000000e+00	0.000000e+00
	0.000000e+00	0.000000e+00	0.000000e+00
	0.000000e+00	0.000000e+00	0.000000e+00
	0.000000e+00	0.000000e+00	0.000000e+00
	0.000000e+00	0.000000e+00	0.000000e+00
	0.000000e+00	0.000000e+00	0.000000e+00
	0.000000e+00	0.000000e+00	0.000000e+00
	0.000000e+00	0.000000e+00	0.000000e+00
	0.000000e+00	0.000000e+00	0.000000e+00
	0.000000e+00	0.000000e+00	0.000000e+00
	0.000000e+00	0.000000e+00	0.000000e+00
	0.000000e+00	0.000000e+00	0.000000e+00
	0.000000e+00	0.000000e+00	0.000000e+00
	0.000000e+00	0.000000e+00	0.000000e+00
	0.000000e+00	0.000000e+00	0.000000e+00
	0.000000e+00	0.000000e+00	0.000000e+00
	0.000000e+00	0.000000e+00	0.000000e+00
	0.000000e+00	0.000000e+00	0.000000e+00
	0.000000e+00	0.000000e+00	0.000000e+00
	0.000000e+00	0.000000e+00	0.000000e+00
	0.000000e+00	0.000000e+00	0.000000e+00
	0.000000e+00	0.000000e+00	0.000000e+00
	0.000000e+00	0.000000e+00	0.000000e+00
	0.000000e+00	0.000000e+00	0.000000e+00
	0.000000e+00	0.000000e+00	0.000000e+00
	0.000000e+00	0.000000e+00	0.000000e+00
	0.000000e+00	0.000000e+00	0.000000e+00
	0.000000e+00	0.000000e+00	0.000000e+00
	0.000000e+00	0.000000e+00	0.000000e+00
	0.000000e+00	0.000000e+00	0.000000e+00
	0.000000e+00	0.000000e+00	0.000000e+00
	0.000000e+00	0.000000e+00	0.000000e+00
	0.000000e+00	0.000000e+00	0.000000e+00
	0.000000e+00	0.000000e+00	0.000000e+00
	0.000000e+00	0.000000e+00	0.000000e+00
	0.000000e+00	0.000000e+00	0.000000e+00
	0.000000e+00	0.000000e+00	0.000000e+00
	0.000000e+00	0.000000e+00	0.000000e+00
	0.000000e+00	0.000000e+00	0.000000e+00
	0.000000e+00	0.000000e+00	0.000000e+00
	0.000000e+00	0.000000e+00	0.000000e+00
	0.000000e+00	0.000000e+00	0.000000e+00
	0.000000e+00	0.000000e+00	0.000000e+00
	0.000000e+00	0.000000e+00	0.000000e+00
	0.000000e+00	0.000000e+00	0.000000e+00
	0.000000e+00	0.000000e+00	0.000000e+00
	0.000000e+00	0.000000e+00	0.000000e+00
	0.000000e+00	0.000000e+00	0.000000e+00
	0.000000e+00	0.000000e+00	0.000000e+00
	0.000000e+00	0.000000e+00	0.000000e+00
	0.000000e+00	0.000000e+00	0.000000e+00
	0.000000e+00	0.000000e+00	0.000000e+00
